! GOLDEN FIXTURE - generated by generate_golden_channels.py
! Ideal lossless matched delay line, tau = 1.0 ns
! Known results: impulse peak at 1.0 ns, pulse peak 1.0,
! statistical eye height 2.0 (zero ISI), IL = 0 dB
# HZ S RI R 50
1.000000e+07 0.000000000e+00 0.000000000e+00 9.980267284e-01 -6.279051953e-02 9.980267284e-01 -6.279051953e-02 0.000000000e+00 0.000000000e+00
4.202202e+07 0.000000000e+00 0.000000000e+00 9.653455374e-01 -2.609750821e-01 9.653455374e-01 -2.609750821e-01 0.000000000e+00 0.000000000e+00
7.404404e+07 0.000000000e+00 0.000000000e+00 8.937173057e-01 -4.486305578e-01 8.937173057e-01 -4.486305578e-01 0.000000000e+00 0.000000000e+00
1.060661e+08 0.000000000e+00 0.000000000e+00 7.860318876e-01 -6.181859524e-01 7.860318876e-01 -6.181859524e-01 0.000000000e+00 0.000000000e+00
1.380881e+08 0.000000000e+00 0.000000000e+00 6.466338705e-01 -7.628005227e-01 6.466338705e-01 -7.628005227e-01 0.000000000e+00 0.000000000e+00
1.701101e+08 0.000000000e+00 0.000000000e+00 4.811472929e-01 -8.766397678e-01 4.811472929e-01 -8.766397678e-01 0.000000000e+00 0.000000000e+00
2.021321e+08 0.000000000e+00 0.000000000e+00 2.962487406e-01 -9.551108227e-01 2.962487406e-01 -9.551108227e-01 0.000000000e+00 0.000000000e+00
2.341542e+08 0.000000000e+00 0.000000000e+00 9.939797915e-02 -9.950477585e-01 9.939797915e-02 -9.950477585e-01 0.000000000e+00 0.000000000e+00
2.661762e+08 0.000000000e+00 0.000000000e+00 -1.014630117e-01 -9.948393123e-01 -1.014630117e-01 -9.948393123e-01 0.000000000e+00 0.000000000e+00
2.981982e+08 0.000000000e+00 0.000000000e+00 -2.982304590e-01 -9.544938938e-01 -2.982304590e-01 -9.544938938e-01 0.000000000e+00 0.000000000e+00
3.302202e+08 0.000000000e+00 0.000000000e+00 -4.829657445e-01 -8.756392463e-01 -4.829657445e-01 -8.756392463e-01 0.000000000e+00 0.000000000e+00
3.622422e+08 0.000000000e+00 0.000000000e+00 -6.482156895e-01 -7.614567748e-01 -6.482156895e-01 -7.614567748e-01 0.000000000e+00 0.000000000e+00
3.942643e+08 0.000000000e+00 0.000000000e+00 -7.873132551e-01 -6.165531919e-01 -7.873132551e-01 -6.165531919e-01 0.000000000e+00 0.000000000e+00
4.262863e+08 0.000000000e+00 0.000000000e+00 -8.946465248e-01 -4.467746587e-01 -8.946465248e-01 -4.467746587e-01 0.000000000e+00 0.000000000e+00
4.583083e+08 0.000000000e+00 0.000000000e+00 -9.658851185e-01 -2.589709211e-01 -9.658851185e-01 -2.589709211e-01 0.000000000e+00 0.000000000e+00
4.903303e+08 0.000000000e+00 0.000000000e+00 -9.981549021e-01 -6.071895467e-02 -9.981549021e-01 -6.071895467e-02 0.000000000e+00 0.000000000e+00
5.223524e+08 0.000000000e+00 0.000000000e+00 -9.901539454e-01 1.399827289e-01 -9.901539454e-01 1.399827289e-01 0.000000000e+00 0.000000000e+00
5.543744e+08 0.000000000e+00 0.000000000e+00 -9.422050485e-01 3.350367840e-01 -9.422050485e-01 3.350367840e-01 0.000000000e+00 0.000000000e+00
5.863964e+08 0.000000000e+00 0.000000000e+00 -8.562427182e-01 5.165737193e-01 -8.562427182e-01 5.165737193e-01 0.000000000e+00 0.000000000e+00
6.184184e+08 0.000000000e+00 0.000000000e+00 -7.357351204e-01 6.772693944e-01 -7.357351204e-01 6.772693944e-01 0.000000000e+00 0.000000000e+00
6.504404e+08 0.000000000e+00 0.000000000e+00 -5.855441560e-01 8.106405131e-01 -5.855441560e-01 8.106405131e-01 0.000000000e+00 0.000000000e+00
6.824625e+08 0.000000000e+00 0.000000000e+00 -4.117293065e-01 9.113061934e-01 -4.117293065e-01 9.113061934e-01 0.000000000e+00 0.000000000e+00
7.144845e+08 0.000000000e+00 0.000000000e+00 -2.213031635e-01 9.752050604e-01 -2.213031635e-01 9.752050604e-01 0.000000000e+00 0.000000000e+00
7.465065e+08 0.000000000e+00 0.000000000e+00 -2.194850437e-02 9.997591026e-01 -2.194850437e-02 9.997591026e-01 0.000000000e+00 0.000000000e+00
7.785285e+08 0.000000000e+00 0.000000000e+00 1.782916712e-01 9.839776827e-01 1.782916712e-01 9.839776827e-01 0.000000000e+00 0.000000000e+00
8.105506e+08 0.000000000e+00 0.000000000e+00 3.713386369e-01 9.284975050e-01 3.713386369e-01 9.284975050e-01 0.000000000e+00 0.000000000e+00
8.425726e+08 0.000000000e+00 0.000000000e+00 5.494038781e-01 8.355569273e-01 5.494038781e-01 8.355569273e-01 0.000000000e+00 0.000000000e+00
8.745946e+08 0.000000000e+00 0.000000000e+00 7.053033204e-01 7.089056540e-01 7.053033204e-01 7.089056540e-01 0.000000000e+00 0.000000000e+00
9.066166e+08 0.000000000e+00 0.000000000e+00 8.327471724e-01 5.536534537e-01 8.327471724e-01 5.536534537e-01 0.000000000e+00 0.000000000e+00
9.386386e+08 0.000000000e+00 0.000000000e+00 9.265936890e-01 3.760640046e-01 9.265936890e-01 3.760640046e-01 0.000000000e+00 0.000000000e+00
9.706607e+08 0.000000000e+00 0.000000000e+00 9.830566153e-01 1.833021851e-01 9.830566153e-01 1.833021851e-01 0.000000000e+00 0.000000000e+00
1.002683e+09 0.000000000e+00 0.000000000e+00 9.998579445e-01 -1.685499426e-02 9.998579445e-01 -1.685499426e-02 0.000000000e+00 0.000000000e+00
1.034705e+09 0.000000000e+00 0.000000000e+00 9.763198238e-01 -2.163321558e-01 9.763198238e-01 -2.163321558e-01 0.000000000e+00 0.000000000e+00
1.066727e+09 0.000000000e+00 0.000000000e+00 9.133919030e-01 -4.070813574e-01 9.133919030e-01 -4.070813574e-01 0.000000000e+00 0.000000000e+00
1.098749e+09 0.000000000e+00 0.000000000e+00 8.136130205e-01 -5.814067878e-01 8.136130205e-01 -5.814067878e-01 0.000000000e+00 0.000000000e+00
1.130771e+09 0.000000000e+00 0.000000000e+00 6.810087732e-01 -7.322752562e-01 6.810087732e-01 -7.322752562e-01 0.000000000e+00 0.000000000e+00
1.162793e+09 0.000000000e+00 0.000000000e+00 5.209291037e-01 -8.535999466e-01 5.209291037e-01 -8.535999466e-01 0.000000000e+00 0.000000000e+00
1.194815e+09 0.000000000e+00 0.000000000e+00 3.398324552e-01 -9.404859927e-01 3.398324552e-01 -9.404859927e-01 0.000000000e+00 0.000000000e+00
1.226837e+09 0.000000000e+00 0.000000000e+00 1.450252047e-01 -9.894279610e-01 1.450252047e-01 -9.894279610e-01 0.000000000e+00 0.000000000e+00
1.258859e+09 0.000000000e+00 0.000000000e+00 -5.563311396e-02 -9.984512790e-01 -5.563311396e-02 -9.984512790e-01 0.000000000e+00 0.000000000e+00
1.290881e+09 0.000000000e+00 0.000000000e+00 -2.540469045e-01 -9.671918994e-01 -2.540469045e-01 -9.671918994e-01 0.000000000e+00 0.000000000e+00
1.322903e+09 0.000000000e+00 0.000000000e+00 -4.422111268e-01 -8.969109874e-01 -4.422111268e-01 -8.969109874e-01 0.000000000e+00 0.000000000e+00
1.354925e+09 0.000000000e+00 0.000000000e+00 -6.125342610e-01 -7.904440392e-01 -6.125342610e-01 -7.904440392e-01 0.000000000e+00 0.000000000e+00
1.386947e+09 0.000000000e+00 0.000000000e+00 -7.581445895e-01 -6.520864831e-01 -7.581445895e-01 -6.520864831e-01 0.000000000e+00 0.000000000e+00
1.418969e+09 0.000000000e+00 0.000000000e+00 -8.731674372e-01 -4.874203797e-01 -8.731674372e-01 -4.874203797e-01 0.000000000e+00 0.000000000e+00
1.450991e+09 0.000000000e+00 0.000000000e+00 -9.529621866e-01 -3.030892128e-01 -9.529621866e-01 -3.030892128e-01 0.000000000e+00 0.000000000e+00
1.483013e+09 0.000000000e+00 0.000000000e+00 -9.943095039e-01 -1.065298567e-01 -9.943095039e-01 -1.065298567e-01 0.000000000e+00 0.000000000e+00
1.515035e+09 0.000000000e+00 0.000000000e+00 -9.955412243e-01 9.432746570e-02 -9.955412243e-01 9.432746570e-02 0.000000000e+00 0.000000000e+00
1.547057e+09 0.000000000e+00 0.000000000e+00 -9.566076536e-01 2.913791294e-01 -9.566076536e-01 2.913791294e-01 0.000000000e+00 0.000000000e+00
1.579079e+09 0.000000000e+00 0.000000000e+00 -8.790795739e-01 4.766750494e-01 -8.790795739e-01 4.766750494e-01 0.000000000e+00 0.000000000e+00
1.611101e+09 0.000000000e+00 0.000000000e+00 -7.660848696e-01 6.427394282e-01 -7.660848696e-01 6.427394282e-01 0.000000000e+00 0.000000000e+00
1.643123e+09 0.000000000e+00 0.000000000e+00 -6.221823324e-01 7.828723684e-01 -6.221823324e-01 7.828723684e-01 0.000000000e+00 0.000000000e+00
1.675145e+09 0.000000000e+00 0.000000000e+00 -4.531777364e-01 8.914201811e-01 -4.531777364e-01 8.914201811e-01 0.000000000e+00 0.000000000e+00
1.707167e+09 0.000000000e+00 0.000000000e+00 -2.658896025e-01 9.640034851e-01 -2.658896025e-01 9.640034851e-01 0.000000000e+00 0.000000000e+00
1.739189e+09 0.000000000e+00 0.000000000e+00 -6.787410451e-02 9.976938939e-01 -6.787410451e-02 9.976938939e-01 0.000000000e+00 0.000000000e+00
1.771211e+09 0.000000000e+00 0.000000000e+00 1.328797866e-01 9.911321619e-01 1.328797866e-01 9.911321619e-01 0.000000000e+00 0.000000000e+00
1.803233e+09 0.000000000e+00 0.000000000e+00 3.282726186e-01 9.445830233e-01 3.282726186e-01 9.445830233e-01 0.000000000e+00 0.000000000e+00
1.835255e+09 0.000000000e+00 0.000000000e+00 5.104212324e-01 8.599245115e-01 5.104212324e-01 8.599245115e-01 0.000000000e+00 0.000000000e+00
1.867277e+09 0.000000000e+00 0.000000000e+00 6.719768091e-01 7.405721896e-01 6.719768091e-01 7.405721896e-01 0.000000000e+00 0.000000000e+00
1.899299e+09 0.000000000e+00 0.000000000e+00 8.064213597e-01 5.913413486e-01 8.064213597e-01 5.913413486e-01 0.000000000e+00 0.000000000e+00
1.931321e+09 0.000000000e+00 0.000000000e+00 9.083306946e-01 4.182527338e-01 9.083306946e-01 4.182527338e-01 0.000000000e+00 0.000000000e+00
1.963343e+09 0.000000000e+00 0.000000000e+00 9.735932630e-01 2.282896367e-01 9.735932630e-01 2.282896367e-01 0.000000000e+00 0.000000000e+00
1.995365e+09 0.000000000e+00 0.000000000e+00 9.995760349e-01 2.911615280e-02 9.995760349e-01 2.911615280e-02 0.000000000e+00 0.000000000e+00
2.027387e+09 0.000000000e+00 0.000000000e+00 9.852307307e-01 -1.712320275e-01 9.852307307e-01 -1.712320275e-01 0.000000000e+00 0.000000000e+00
2.059409e+09 0.000000000e+00 0.000000000e+00 9.311361142e-01 -3.646718207e-01 9.311361142e-01 -3.646718207e-01 0.000000000e+00 0.000000000e+00
2.091431e+09 0.000000000e+00 0.000000000e+00 8.394746426e-01 -5.433988632e-01 8.394746426e-01 -5.433988632e-01 0.000000000e+00 0.000000000e+00
2.123453e+09 0.000000000e+00 0.000000000e+00 7.139444144e-01 -7.002023801e-01 7.139444144e-01 -7.002023801e-01 0.000000000e+00 0.000000000e+00
2.155475e+09 0.000000000e+00 0.000000000e+00 5.596099695e-01 -8.287561053e-01 5.596099695e-01 -8.287561053e-01 0.000000000e+00 0.000000000e+00
2.187497e+09 0.000000000e+00 0.000000000e+00 3.826979591e-01 -9.238735152e-01 3.826979591e-01 -9.238735152e-01 0.000000000e+00 0.000000000e+00
2.219520e+09 0.000000000e+00 0.000000000e+00 1.903459302e-01 -9.817170809e-01 1.903459302e-01 -9.817170809e-01 0.000000000e+00 0.000000000e+00
2.251542e+09 0.000000000e+00 0.000000000e+00 -9.685639720e-03 -9.999530931e-01 -9.685639720e-03 -9.999530931e-01 0.000000000e+00 0.000000000e+00
2.283564e+09 0.000000000e+00 0.000000000e+00 -2.093264408e-01 -9.778458167e-01 -2.093264408e-01 -9.778458167e-01 0.000000000e+00 0.000000000e+00
2.315586e+09 0.000000000e+00 0.000000000e+00 -4.005219286e-01 -9.162871737e-01 -4.005219286e-01 -9.162871737e-01 0.000000000e+00 0.000000000e+00
2.347608e+09 0.000000000e+00 0.000000000e+00 -5.755582868e-01 -8.177607587e-01 -5.755582868e-01 -8.177607587e-01 0.000000000e+00 0.000000000e+00
2.379630e+09 0.000000000e+00 0.000000000e+00 -7.273736416e-01 -6.862416379e-01 -7.273736416e-01 -6.862416379e-01 0.000000000e+00 0.000000000e+00
2.411652e+09 0.000000000e+00 0.000000000e+00 -8.498429751e-01 -5.270359738e-01 -8.498429751e-01 -5.270359738e-01 0.000000000e+00 0.000000000e+00
2.443674e+09 0.000000000e+00 0.000000000e+00 -9.380252398e-01 -3.465669480e-01 -9.380252398e-01 -3.465669480e-01 0.000000000e+00 0.000000000e+00
2.475696e+09 0.000000000e+00 0.000000000e+00 -9.883627064e-01 -1.521156158e-01 -9.883627064e-01 -1.521156158e-01 0.000000000e+00 0.000000000e+00
2.507718e+09 0.000000000e+00 0.000000000e+00 -9.988245006e-01 4.847284837e-02 -9.988245006e-01 4.847284837e-02 0.000000000e+00 0.000000000e+00
2.539740e+09 0.000000000e+00 0.000000000e+00 -9.689885394e-01 2.471056667e-01 -9.689885394e-01 2.471056667e-01 0.000000000e+00 0.000000000e+00
2.571762e+09 0.000000000e+00 0.000000000e+00 -9.000585601e-01 4.357689622e-01 -9.000585601e-01 4.357689622e-01 0.000000000e+00 0.000000000e+00
2.603784e+09 0.000000000e+00 0.000000000e+00 -7.948155552e-01 6.068510800e-01 -7.948155552e-01 6.068510800e-01 0.000000000e+00 0.000000000e+00
2.635806e+09 0.000000000e+00 0.000000000e+00 -6.575055727e-01 7.534496810e-01 -6.575055727e-01 7.534496810e-01 0.000000000e+00 0.000000000e+00
2.667828e+09 0.000000000e+00 0.000000000e+00 -4.936684088e-01 8.696502183e-01 -4.936684088e-01 8.696502183e-01 0.000000000e+00 0.000000000e+00
2.699850e+09 0.000000000e+00 0.000000000e+00 -3.099141036e-01 9.507645599e-01 -3.099141036e-01 9.507645599e-01 0.000000000e+00 0.000000000e+00
2.731872e+09 0.000000000e+00 0.000000000e+00 -1.136562578e-01 9.935201332e-01 -1.136562578e-01 9.935201332e-01 0.000000000e+00 0.000000000e+00
2.763894e+09 0.000000000e+00 0.000000000e+00 8.718707041e-02 9.961919568e-01 8.718707041e-02 9.961919568e-01 0.000000000e+00 0.000000000e+00
2.795916e+09 0.000000000e+00 0.000000000e+00 2.845128204e-01 9.586722354e-01 2.845128204e-01 9.586722354e-01 0.000000000e+00 0.000000000e+00
2.827938e+09 0.000000000e+00 0.000000000e+00 4.703598492e-01 8.824747091e-01 4.703598492e-01 8.824747091e-01 0.000000000e+00 0.000000000e+00
2.859960e+09 0.000000000e+00 0.000000000e+00 6.372301246e-01 7.706735809e-01 6.372301246e-01 7.706735809e-01 0.000000000e+00 0.000000000e+00
2.891982e+09 0.000000000e+00 0.000000000e+00 7.783912353e-01 6.277794874e-01 7.783912353e-01 6.277794874e-01 0.000000000e+00 0.000000000e+00
2.924004e+09 0.000000000e+00 0.000000000e+00 8.881480106e-01 4.595575168e-01 8.881480106e-01 4.595575168e-01 0.000000000e+00 0.000000000e+00
2.956026e+09 0.000000000e+00 0.000000000e+00 9.620722936e-01 2.727946150e-01 9.620722936e-01 2.727946150e-01 0.000000000e+00 0.000000000e+00
2.988048e+09 0.000000000e+00 0.000000000e+00 9.971815956e-01 7.502576502e-02 9.971815956e-01 7.502576502e-02 0.000000000e+00 0.000000000e+00
3.020070e+09 0.000000000e+00 0.000000000e+00 9.920594255e-01 -1.257700130e-01 9.920594255e-01 -1.257700130e-01 0.000000000e+00 0.000000000e+00
3.052092e+09 0.000000000e+00 0.000000000e+00 9.469124383e-01 -3.214915771e-01 9.469124383e-01 -3.214915771e-01 0.000000000e+00 0.000000000e+00
3.084114e+09 0.000000000e+00 0.000000000e+00 8.635620973e-01 -5.042425053e-01 8.635620973e-01 -5.042425053e-01 0.000000000e+00 0.000000000e+00
3.116136e+09 0.000000000e+00 0.000000000e+00 7.453711870e-01 -6.666496783e-01 7.453711870e-01 -6.666496783e-01 0.000000000e+00 0.000000000e+00
3.148158e+09 0.000000000e+00 0.000000000e+00 5.971081412e-01 -8.021607493e-01 5.971081412e-01 -8.021607493e-01 0.000000000e+00 0.000000000e+00
3.180180e+09 0.000000000e+00 0.000000000e+00 4.247546593e-01 -9.053084996e-01 4.247546593e-01 -9.053084996e-01 0.000000000e+00 0.000000000e+00
3.212202e+09 0.000000000e+00 0.000000000e+00 2.352643737e-01 -9.719314145e-01 2.352643737e-01 -9.719314145e-01 0.000000000e+00 0.000000000e+00
3.244224e+09 0.000000000e+00 0.000000000e+00 3.628230440e-02 -9.993415804e-01 3.628230440e-02 -9.993415804e-01 0.000000000e+00 0.000000000e+00
3.276246e+09 0.000000000e+00 0.000000000e+00 -1.641635811e-01 -9.864331293e-01 -1.641635811e-01 -9.864331293e-01 0.000000000e+00 0.000000000e+00
3.308268e+09 0.000000000e+00 0.000000000e+00 -3.579862571e-01 -9.337268550e-01 -3.579862571e-01 -9.337268550e-01 0.000000000e+00 0.000000000e+00
3.340290e+09 0.000000000e+00 0.000000000e+00 -5.373659128e-01 -8.433492016e-01 -5.373659128e-01 -8.433492016e-01 0.000000000e+00 0.000000000e+00
3.372312e+09 0.000000000e+00 0.000000000e+00 -6.950654434e-01 -7.189464718e-01 -6.950654434e-01 -7.189464718e-01 0.000000000e+00 0.000000000e+00
3.404334e+09 0.000000000e+00 0.000000000e+00 -8.247224328e-01 -5.655377165e-01 -8.247224328e-01 -5.655377165e-01 0.000000000e+00 0.000000000e+00
3.436356e+09 0.000000000e+00 0.000000000e+00 -9.211058463e-01 -3.893122396e-01 -9.211058463e-01 -3.893122396e-01 0.000000000e+00 0.000000000e+00
3.468378e+09 0.000000000e+00 0.000000000e+00 -9.803270776e-01 -1.973798899e-01 -9.803270776e-01 -1.973798899e-01 0.000000000e+00 0.000000000e+00
3.500400e+09 0.000000000e+00 0.000000000e+00 -9.999968354e-01 2.515787259e-03 -9.999968354e-01 2.515787259e-03 0.000000000e+00 0.000000000e+00
3.532422e+09 0.000000000e+00 0.000000000e+00 -9.793215398e-01 2.023099645e-01 -9.793215398e-01 2.023099645e-01 0.000000000e+00 0.000000000e+00
3.564444e+09 0.000000000e+00 0.000000000e+00 -9.191353393e-01 3.939419096e-01 -9.191353393e-01 3.939419096e-01 0.000000000e+00 0.000000000e+00
3.596466e+09 0.000000000e+00 0.000000000e+00 -8.218664570e-01 5.696801970e-01 -8.218664570e-01 5.696801970e-01 0.000000000e+00 0.000000000e+00
3.628488e+09 0.000000000e+00 0.000000000e+00 -6.914392237e-01 7.224346337e-01 -6.914392237e-01 7.224346337e-01 0.000000000e+00 0.000000000e+00
3.660511e+09 0.000000000e+00 0.000000000e+00 -5.331157497e-01 8.460423142e-01 -5.331157497e-01 8.460423142e-01 0.000000000e+00 0.000000000e+00
3.692533e+09 0.000000000e+00 0.000000000e+00 -3.532836242e-01 9.355162643e-01 -3.532836242e-01 9.355162643e-01 0.000000000e+00 0.000000000e+00
3.724555e+09 0.000000000e+00 0.000000000e+00 -1.591982069e-01 9.872466414e-01 -1.591982069e-01 9.872466414e-01 0.000000000e+00 0.000000000e+00
3.756577e+09 0.000000000e+00 0.000000000e+00 4.131009084e-02 9.991463739e-01 4.131009084e-02 9.991463739e-01 0.000000000e+00 0.000000000e+00
3.788599e+09 0.000000000e+00 0.000000000e+00 2.401517255e-01 9.707353649e-01 2.401517255e-01 9.707353649e-01 0.000000000e+00 0.000000000e+00
3.820621e+09 0.000000000e+00 0.000000000e+00 4.293043953e-01 9.031598619e-01 4.293043953e-01 9.031598619e-01 0.000000000e+00 0.000000000e+00
3.852643e+09 0.000000000e+00 0.000000000e+00 6.011367016e-01 7.991462107e-01 6.011367016e-01 7.991462107e-01 0.000000000e+00 0.000000000e+00
3.884665e+09 0.000000000e+00 0.000000000e+00 7.487160387e-01 6.628908608e-01 7.487160387e-01 6.628908608e-01 0.000000000e+00 0.000000000e+00
3.916687e+09 0.000000000e+00 0.000000000e+00 8.660882917e-01 4.998910591e-01 8.660882917e-01 4.998910591e-01 0.000000000e+00 0.000000000e+00
3.948709e+09 0.000000000e+00 0.000000000e+00 9.485180557e-01 3.167230622e-01 9.485180557e-01 3.167230622e-01 0.000000000e+00 0.000000000e+00
3.980731e+09 0.000000000e+00 0.000000000e+00 9.926796869e-01 1.207768159e-01 9.926796869e-01 1.207768159e-01 0.000000000e+00 0.000000000e+00
4.012753e+09 0.000000000e+00 0.000000000e+00 9.967914764e-01 -8.004219295e-02 9.967914764e-01 -8.004219295e-02 0.000000000e+00 0.000000000e+00
4.044775e+09 0.000000000e+00 0.000000000e+00 9.606875332e-01 -2.776318850e-01 9.606875332e-01 -2.776318850e-01 0.000000000e+00 0.000000000e+00
4.076797e+09 0.000000000e+00 0.000000000e+00 8.858244775e-01 -4.640204683e-01 8.858244775e-01 -4.640204683e-01 0.000000000e+00 0.000000000e+00
4.108819e+09 0.000000000e+00 0.000000000e+00 7.752226729e-01 -6.316880619e-01 7.752226729e-01 -6.316880619e-01 0.000000000e+00 0.000000000e+00
4.140841e+09 0.000000000e+00 0.000000000e+00 6.333443691e-01 -7.738700861e-01 6.333443691e-01 -7.738700861e-01 0.000000000e+00 0.000000000e+00
4.172863e+09 0.000000000e+00 0.000000000e+00 4.659136720e-01 -8.848301816e-01 4.659136720e-01 -8.848301816e-01 0.000000000e+00 0.000000000e+00
4.204885e+09 0.000000000e+00 0.000000000e+00 2.796856034e-01 -9.600916431e-01 2.796856034e-01 -9.600916431e-01 0.000000000e+00 0.000000000e+00
4.236907e+09 0.000000000e+00 0.000000000e+00 8.217356856e-02 -9.966180335e-01 8.217356856e-02 -9.966180335e-01 0.000000000e+00 0.000000000e+00
4.268929e+09 0.000000000e+00 0.000000000e+00 -1.186537738e-01 -9.929356887e-01 -1.186537738e-01 -9.929356887e-01 0.000000000e+00 0.000000000e+00
4.300951e+09 0.000000000e+00 0.000000000e+00 -3.146940082e-01 -9.491931738e-01 -3.146940082e-01 -9.491931738e-01 0.000000000e+00 0.000000000e+00
4.332973e+09 0.000000000e+00 0.000000000e+00 -4.980378558e-01 -8.671552884e-01 -4.980378558e-01 -8.671552884e-01 0.000000000e+00 0.000000000e+00
4.364995e+09 0.000000000e+00 0.000000000e+00 -6.612882760e-01 -7.501318658e-01 -6.612882760e-01 -7.501318658e-01 0.000000000e+00 0.000000000e+00
4.397017e+09 0.000000000e+00 0.000000000e+00 -7.978589009e-01 -6.028442372e-01 -7.978589009e-01 -6.028442372e-01 0.000000000e+00 0.000000000e+00
4.429039e+09 0.000000000e+00 0.000000000e+00 -9.022397639e-01 -4.312347487e-01 -9.022397639e-01 -4.312347487e-01 0.000000000e+00 0.000000000e+00
4.461061e+09 0.000000000e+00 0.000000000e+00 -9.702196002e-01 -2.422270162e-01 -9.702196002e-01 -2.422270162e-01 0.000000000e+00 0.000000000e+00
4.493083e+09 0.000000000e+00 0.000000000e+00 -9.990557511e-01 -4.344659078e-02 -9.990557511e-01 -4.344659078e-02 0.000000000e+00 0.000000000e+00
4.525105e+09 0.000000000e+00 0.000000000e+00 -9.875848167e-01 1.570866952e-01 -9.875848167e-01 1.570866952e-01 0.000000000e+00 0.000000000e+00
4.557127e+09 0.000000000e+00 0.000000000e+00 -9.362695941e-01 3.512822900e-01 -9.362695941e-01 3.512822900e-01 0.000000000e+00 0.000000000e+00
4.589149e+09 0.000000000e+00 0.000000000e+00 -8.471804051e-01 5.313053371e-01 -8.471804051e-01 5.313053371e-01 0.000000000e+00 0.000000000e+00
4.621171e+09 0.000000000e+00 0.000000000e+00 -7.239115692e-01 6.898927743e-01 -7.239115692e-01 6.898927743e-01 0.000000000e+00 0.000000000e+00
4.653193e+09 0.000000000e+00 0.000000000e+00 -5.714363900e-01 8.206463625e-01 -5.714363900e-01 8.206463625e-01 0.000000000e+00 0.000000000e+00
4.685215e+09 0.000000000e+00 0.000000000e+00 -3.959065061e-01 9.182908245e-01 -3.959065061e-01 9.182908245e-01 0.000000000e+00 0.000000000e+00
4.717237e+09 0.000000000e+00 0.000000000e+00 -2.044037025e-01 9.788866770e-01 -2.044037025e-01 9.788866770e-01 0.000000000e+00 0.000000000e+00
4.749259e+09 0.000000000e+00 0.000000000e+00 -4.654194536e-03 9.999891692e-01 -4.654194536e-03 9.999891692e-01 0.000000000e+00 0.000000000e+00
4.781281e+09 0.000000000e+00 0.000000000e+00 1.952830878e-01 9.807469172e-01 1.952830878e-01 9.807469172e-01 0.000000000e+00 0.000000000e+00
4.813303e+09 0.000000000e+00 0.000000000e+00 3.873416385e-01 9.219362533e-01 3.873416385e-01 9.219362533e-01 0.000000000e+00 0.000000000e+00
4.845325e+09 0.000000000e+00 0.000000000e+00 5.637728207e-01 8.259299042e-01 5.637728207e-01 8.259299042e-01 0.000000000e+00 0.000000000e+00
4.877347e+09 0.000000000e+00 0.000000000e+00 7.174584863e-01 6.966012636e-01 7.174584863e-01 6.966012636e-01 0.000000000e+00 0.000000000e+00
4.909369e+09 0.000000000e+00 0.000000000e+00 8.421981594e-01 5.391681188e-01 8.421981594e-01 5.391681188e-01 0.000000000e+00 0.000000000e+00
4.941391e+09 0.000000000e+00 0.000000000e+00 9.329591952e-01 3.599821386e-01 9.329591952e-01 3.599821386e-01 0.000000000e+00 0.000000000e+00
4.973413e+09 0.000000000e+00 0.000000000e+00 9.860798233e-01 1.662726138e-01 9.860798233e-01 1.662726138e-01 0.000000000e+00 0.000000000e+00
5.005435e+09 0.000000000e+00 0.000000000e+00 9.994168823e-01 -3.414520963e-02 9.994168823e-01 -3.414520963e-02 0.000000000e+00 0.000000000e+00
5.037457e+09 0.000000000e+00 0.000000000e+00 9.724322862e-01 -2.331854384e-01 9.724322862e-01 -2.331854384e-01 0.000000000e+00 0.000000000e+00
5.069479e+09 0.000000000e+00 0.000000000e+00 9.062147334e-01 -4.228177585e-01 9.062147334e-01 -4.228177585e-01 0.000000000e+00 0.000000000e+00
5.101502e+09 0.000000000e+00 0.000000000e+00 8.034357831e-01 -5.953914195e-01 8.034357831e-01 -5.953914195e-01 0.000000000e+00 0.000000000e+00
5.133524e+09 0.000000000e+00 0.000000000e+00 6.682420706e-01 -7.439439059e-01 6.682420706e-01 -7.439439059e-01 0.000000000e+00 0.000000000e+00
5.165546e+09 0.000000000e+00 0.000000000e+00 5.060880107e-01 -8.624818406e-01 5.060880107e-01 -8.624818406e-01 0.000000000e+00 0.000000000e+00
5.197568e+09 0.000000000e+00 0.000000000e+00 3.235157384e-01 -9.462227893e-01 3.235157384e-01 -9.462227893e-01 0.000000000e+00 0.000000000e+00
5.229590e+09 0.000000000e+00 0.000000000e+00 1.278911650e-01 -9.917882082e-01 1.278911650e-01 -9.917882082e-01 0.000000000e+00 0.000000000e+00
5.261612e+09 0.000000000e+00 0.000000000e+00 -7.289320062e-02 -9.973397522e-01 -7.289320062e-02 -9.973397522e-01 0.000000000e+00 0.000000000e+00
5.293634e+09 0.000000000e+00 0.000000000e+00 -2.707366768e-01 -9.626534433e-01 -2.707366768e-01 -9.626534433e-01 0.000000000e+00 0.000000000e+00
5.325656e+09 0.000000000e+00 0.000000000e+00 -4.576572328e-01 -8.891287068e-01 -4.576572328e-01 -8.891287068e-01 0.000000000e+00 0.000000000e+00
5.357678e+09 0.000000000e+00 0.000000000e+00 -6.261135248e-01 -7.797319116e-01 -6.261135248e-01 -7.797319116e-01 0.000000000e+00 0.000000000e+00
5.389700e+09 0.000000000e+00 0.000000000e+00 -7.693091533e-01 -6.388766913e-01 -7.693091533e-01 -6.388766913e-01 0.000000000e+00 0.000000000e+00
5.421722e+09 0.000000000e+00 0.000000000e+00 -8.814668646e-01 -4.722458751e-01 -8.814668646e-01 -4.722458751e-01 0.000000000e+00 0.000000000e+00
5.453744e+09 0.000000000e+00 0.000000000e+00 -9.580616357e-01 -2.865622136e-01 -9.580616357e-01 -2.865622136e-01 0.000000000e+00 0.000000000e+00
5.485766e+09 0.000000000e+00 0.000000000e+00 -9.960032365e-01 -8.931714767e-02 -9.960032365e-01 -8.931714767e-02 0.000000000e+00 0.000000000e+00
5.517788e+09 0.000000000e+00 0.000000000e+00 -9.937609064e-01 1.115314348e-01 -9.937609064e-01 1.115314348e-01 0.000000000e+00 0.000000000e+00
5.549810e+09 0.000000000e+00 0.000000000e+00 -9.514251125e-01 3.078802613e-01 -9.514251125e-01 3.078802613e-01 0.000000000e+00 0.000000000e+00
5.581832e+09 0.000000000e+00 0.000000000e+00 -8.707039002e-01 4.918076029e-01 -8.707039002e-01 4.918076029e-01 0.000000000e+00 0.000000000e+00
5.613854e+09 0.000000000e+00 0.000000000e+00 -7.548539813e-01 6.558928777e-01 -7.548539813e-01 6.558928777e-01 0.000000000e+00 0.000000000e+00
5.645876e+09 0.000000000e+00 0.000000000e+00 -6.085493418e-01 7.935160355e-01 -6.085493418e-01 7.935160355e-01 0.000000000e+00 0.000000000e+00
5.677898e+09 0.000000000e+00 0.000000000e+00 -4.376926689e-01 8.991246452e-01 -4.376926689e-01 8.991246452e-01 0.000000000e+00 0.000000000e+00
5.709920e+09 0.000000000e+00 0.000000000e+00 -2.491772060e-01 9.684579082e-01 -2.491772060e-01 9.684579082e-01 0.000000000e+00 0.000000000e+00
5.741942e+09 0.000000000e+00 0.000000000e+00 -5.060864362e-02 9.987185616e-01 -5.060864362e-02 9.987185616e-01 0.000000000e+00 0.000000000e+00
5.773964e+09 0.000000000e+00 0.000000000e+00 1.500017337e-01 9.886857336e-01 1.500017337e-01 9.886857336e-01 0.000000000e+00 0.000000000e+00
5.805986e+09 0.000000000e+00 0.000000000e+00 3.445602638e-01 9.387642007e-01 3.445602638e-01 9.387642007e-01 0.000000000e+00 0.000000000e+00
5.838008e+09 0.000000000e+00 0.000000000e+00 5.252174478e-01 8.509680561e-01 5.252174478e-01 8.509680561e-01 0.000000000e+00 0.000000000e+00
5.870030e+09 0.000000000e+00 0.000000000e+00 6.846846386e-01 7.288394512e-01 6.846846386e-01 7.288394512e-01 0.000000000e+00 0.000000000e+00
5.902052e+09 0.000000000e+00 0.000000000e+00 8.165281038e-01 5.773056866e-01 8.165281038e-01 5.773056866e-01 0.000000000e+00 0.000000000e+00
5.934074e+09 0.000000000e+00 0.000000000e+00 9.154285947e-01 4.024804195e-01 9.154285947e-01 4.024804195e-01 0.000000000e+00 0.000000000e+00
5.966096e+09 0.000000000e+00 0.000000000e+00 9.773959531e-01 2.114170070e-01 9.773959531e-01 2.114170070e-01 0.000000000e+00 0.000000000e+00
5.998118e+09 0.000000000e+00 0.000000000e+00 9.999300948e-01 1.182393706e-02 9.999300948e-01 1.182393706e-02 0.000000000e+00 0.000000000e+00
6.030140e+09 0.000000000e+00 0.000000000e+00 9.821218757e-01 -1.882461718e-01 9.821218757e-01 -1.882461718e-01 0.000000000e+00 0.000000000e+00
6.062162e+09 0.000000000e+00 0.000000000e+00 9.246897717e-01 -3.807214547e-01 9.246897717e-01 -3.807214547e-01 0.000000000e+00 0.000000000e+00
6.094184e+09 0.000000000e+00 0.000000000e+00 8.299508914e-01 -5.578364616e-01 8.299508914e-01 -5.578364616e-01 0.000000000e+00 0.000000000e+00
6.126206e+09 0.000000000e+00 0.000000000e+00 7.017274920e-01 -7.124454554e-01 7.017274920e-01 -7.124454554e-01 0.000000000e+00 0.000000000e+00
6.158228e+09 0.000000000e+00 0.000000000e+00 5.451927699e-01 -8.383107083e-01 5.451927699e-01 -8.383107083e-01 0.000000000e+00 0.000000000e+00
6.190250e+09 0.000000000e+00 0.000000000e+00 3.666621468e-01 -9.303541638e-01 3.666621468e-01 -9.303541638e-01 0.000000000e+00 0.000000000e+00
6.222272e+09 0.000000000e+00 0.000000000e+00 1.733384729e-01 -9.848623121e-01 1.733384729e-01 -9.848623121e-01 0.000000000e+00 0.000000000e+00
6.254294e+09 0.000000000e+00 0.000000000e+00 -2.697857305e-02 -9.996360121e-01 -2.697857305e-02 -9.996360121e-01 0.000000000e+00 0.000000000e+00
6.286316e+09 0.000000000e+00 0.000000000e+00 -2.262071636e-01 -9.740792161e-01 -2.262071636e-01 -9.740792161e-01 0.000000000e+00 0.000000000e+00
6.318338e+09 0.000000000e+00 0.000000000e+00 -4.163093851e-01 -9.092230177e-01 -4.163093851e-01 -9.092230177e-01 0.000000000e+00 0.000000000e+00
6.350360e+09 0.000000000e+00 0.000000000e+00 -5.896155292e-01 -8.076840520e-01 -5.896155292e-01 -8.076840520e-01 0.000000000e+00 0.000000000e+00
6.382382e+09 0.000000000e+00 0.000000000e+00 -7.391335279e-01 -6.735589269e-01 -7.391335279e-01 -6.735589269e-01 0.000000000e+00 0.000000000e+00
6.414404e+09 0.000000000e+00 0.000000000e+00 -8.588310505e-01 -5.122589449e-01 -8.588310505e-01 -5.122589449e-01 0.000000000e+00 0.000000000e+00
6.446426e+09 0.000000000e+00 0.000000000e+00 -9.438788789e-01 -3.302917831e-01 -9.438788789e-01 -3.302917831e-01 0.000000000e+00 0.000000000e+00
6.478448e+09 0.000000000e+00 0.000000000e+00 -9.908457430e-01 -1.349989394e-01 -9.908457430e-01 -1.349989394e-01 0.000000000e+00 0.000000000e+00
6.510470e+09 0.000000000e+00 0.000000000e+00 -9.978367561e-01 6.574046095e-02 -9.978367561e-01 6.574046095e-02 0.000000000e+00 0.000000000e+00
6.542492e+09 0.000000000e+00 0.000000000e+00 -9.645698646e-01 2.638275505e-01 -9.645698646e-01 2.638275505e-01 0.000000000e+00 0.000000000e+00
6.574515e+09 0.000000000e+00 0.000000000e+00 -8.923872271e-01 4.512704697e-01 -8.923872271e-01 4.512704697e-01 0.000000000e+00 0.000000000e+00
6.606537e+09 0.000000000e+00 0.000000000e+00 -7.842010654e-01 6.205068001e-01 -7.842010654e-01 6.205068001e-01 0.000000000e+00 0.000000000e+00
6.638559e+09 0.000000000e+00 0.000000000e+00 -6.443761697e-01 7.647086713e-01 -6.443761697e-01 7.647086713e-01 0.000000000e+00 0.000000000e+00
6.670581e+09 0.000000000e+00 0.000000000e+00 -4.785538007e-01 8.780582326e-01 -4.785538007e-01 8.780582326e-01 0.000000000e+00 0.000000000e+00
6.702603e+09 0.000000000e+00 0.000000000e+00 -2.934240920e-01 9.559823755e-01 -2.934240920e-01 9.559823755e-01 0.000000000e+00 0.000000000e+00
6.734625e+09 0.000000000e+00 0.000000000e+00 -9.645613509e-02 9.953372363e-01 -9.645613509e-02 9.953372363e-01 0.000000000e+00 0.000000000e+00
6.766647e+09 0.000000000e+00 0.000000000e+00 1.044033620e-01 9.945350361e-01 1.044033620e-01 9.945350361e-01 0.000000000e+00 0.000000000e+00
6.798669e+09 0.000000000e+00 0.000000000e+00 3.010506866e-01 9.536081397e-01 3.010506866e-01 9.536081397e-01 0.000000000e+00 0.000000000e+00
6.830691e+09 0.000000000e+00 0.000000000e+00 4.855520667e-01 8.742077502e-01 4.855520667e-01 8.742077502e-01 0.000000000e+00 0.000000000e+00
6.862713e+09 0.000000000e+00 0.000000000e+00 6.504637607e-01 7.595372907e-01 6.504637607e-01 7.595372907e-01 0.000000000e+00 0.000000000e+00
6.894735e+09 0.000000000e+00 0.000000000e+00 7.891323765e-01 6.142231616e-01 7.891323765e-01 6.142231616e-01 0.000000000e+00 0.000000000e+00
6.926757e+09 0.000000000e+00 0.000000000e+00 8.959633037e-01 4.441280879e-01 8.959633037e-01 4.441280879e-01 0.000000000e+00 0.000000000e+00
6.958779e+09 0.000000000e+00 0.000000000e+00 9.666464291e-01 2.561145860e-01 9.666464291e-01 2.561145860e-01 0.000000000e+00 0.000000000e+00
6.990801e+09 0.000000000e+00 0.000000000e+00 9.983300292e-01 5.776809474e-02 9.983300292e-01 5.776809474e-02 0.000000000e+00 0.000000000e+00
7.022823e+09 0.000000000e+00 0.000000000e+00 9.897358235e-01 -1.429090608e-01 9.897358235e-01 -1.429090608e-01 0.000000000e+00 0.000000000e+00
7.054845e+09 0.000000000e+00 0.000000000e+00 9.412105468e-01 -3.378205243e-01 9.412105468e-01 -3.378205243e-01 0.000000000e+00 0.000000000e+00
7.086867e+09 0.000000000e+00 0.000000000e+00 8.547119600e-01 -5.191025576e-01 8.547119600e-01 -5.191025576e-01 0.000000000e+00 0.000000000e+00
7.118889e+09 0.000000000e+00 0.000000000e+00 7.337298645e-01 -6.794413043e-01 7.337298645e-01 -6.794413043e-01 0.000000000e+00 0.000000000e+00
7.150911e+09 0.000000000e+00 0.000000000e+00 5.831453047e-01 -8.123678684e-01 5.831453047e-01 -8.123678684e-01 0.000000000e+00 0.000000000e+00
7.182933e+09 0.000000000e+00 0.000000000e+00 4.090336419e-01 -9.125193038e-01 4.090336419e-01 -9.125193038e-01 0.000000000e+00 0.000000000e+00
7.214955e+09 0.000000000e+00 0.000000000e+00 2.184194428e-01 -9.758549826e-01 2.184194428e-01 -9.758549826e-01 0.000000000e+00 0.000000000e+00
7.246977e+09 0.000000000e+00 0.000000000e+00 1.899307174e-02 -9.998196153e-01 1.899307174e-02 -9.998196153e-01 0.000000000e+00 0.000000000e+00
7.278999e+09 0.000000000e+00 0.000000000e+00 -1.811995783e-01 -9.834463447e-01 -1.811995783e-01 -9.834463447e-01 0.000000000e+00 0.000000000e+00
7.311021e+09 0.000000000e+00 0.000000000e+00 -3.740816985e-01 -9.273957531e-01 -3.740816985e-01 -9.273957531e-01 0.000000000e+00 0.000000000e+00
7.343043e+09 0.000000000e+00 0.000000000e+00 -5.518714248e-01 -8.339292119e-01 -5.518714248e-01 -8.339292119e-01 0.000000000e+00 0.000000000e+00
7.375065e+09 0.000000000e+00 0.000000000e+00 -7.073957986e-01 -7.068176456e-01 -7.073957986e-01 -7.068176456e-01 0.000000000e+00 0.000000000e+00
7.407087e+09 0.000000000e+00 0.000000000e+00 -8.343801607e-01 -5.511893934e-01 -8.343801607e-01 -5.511893934e-01 0.000000000e+00 0.000000000e+00
7.439109e+09 0.000000000e+00 0.000000000e+00 -9.277013041e-01 -3.733233053e-01 -9.277013041e-01 -3.733233053e-01 0.000000000e+00 0.000000000e+00
7.471131e+09 0.000000000e+00 0.000000000e+00 -9.835941704e-01 -1.803954209e-01 -9.835941704e-01 -1.803954209e-01 0.000000000e+00 0.000000000e+00
7.503153e+09 0.000000000e+00 0.000000000e+00 -9.998037518e-01 1.981054953e-02 -9.998037518e-01 1.981054953e-02 0.000000000e+00 0.000000000e+00
7.535175e+09 0.000000000e+00 0.000000000e+00 -9.756760697e-01 2.192172597e-01 -9.756760697e-01 2.192172597e-01 0.000000000e+00 0.000000000e+00
7.567197e+09 0.000000000e+00 0.000000000e+00 -9.121845599e-01 4.097796099e-01 -9.121845599e-01 4.097796099e-01 0.000000000e+00 0.000000000e+00
7.599219e+09 0.000000000e+00 0.000000000e+00 -8.118907988e-01 5.838093274e-01 -8.118907988e-01 5.838093274e-01 0.000000000e+00 0.000000000e+00
7.631241e+09 0.000000000e+00 0.000000000e+00 -6.788411564e-01 7.342851519e-01 -6.788411564e-01 7.342851519e-01 0.000000000e+00 0.000000000e+00
7.663263e+09 0.000000000e+00 0.000000000e+00 -5.184035446e-01 8.551361090e-01 -5.184035446e-01 8.551361090e-01 0.000000000e+00 0.000000000e+00
7.695285e+09 0.000000000e+00 0.000000000e+00 -3.370508479e-01 9.414864449e-01 -3.370508479e-01 9.414864449e-01 0.000000000e+00 0.000000000e+00
7.727307e+09 0.000000000e+00 0.000000000e+00 -1.420997737e-01 9.898523397e-01 -1.420997737e-01 9.898523397e-01 0.000000000e+00 0.000000000e+00
7.759329e+09 0.000000000e+00 0.000000000e+00 5.858434164e-02 9.982824625e-01 5.858434164e-02 9.982824625e-01 0.000000000e+00 0.000000000e+00
7.791351e+09 0.000000000e+00 0.000000000e+00 2.569048611e-01 9.664366986e-01 2.569048611e-01 9.664366986e-01 0.000000000e+00 0.000000000e+00
7.823373e+09 0.000000000e+00 0.000000000e+00 4.448605074e-01 8.955998710e-01 4.448605074e-01 8.955998710e-01 0.000000000e+00 0.000000000e+00
7.855395e+09 0.000000000e+00 0.000000000e+00 6.148681759e-01 7.886299045e-01 6.148681759e-01 7.886299045e-01 0.000000000e+00 0.000000000e+00
7.887417e+09 0.000000000e+00 0.000000000e+00 7.600688766e-01 6.498425216e-01 7.600688766e-01 6.498425216e-01 0.000000000e+00 0.000000000e+00
7.919439e+09 0.000000000e+00 0.000000000e+00 8.746044607e-01 4.848371245e-01 8.746044607e-01 4.848371245e-01 0.000000000e+00 0.000000000e+00
7.951461e+09 0.000000000e+00 0.000000000e+00 9.538539695e-01 3.002708858e-01 9.538539695e-01 3.002708858e-01 0.000000000e+00 0.000000000e+00
7.983483e+09 0.000000000e+00 0.000000000e+00 9.946200671e-01 1.035901638e-01 9.946200671e-01 1.035901638e-01 0.000000000e+00 0.000000000e+00
8.015506e+09 0.000000000e+00 0.000000000e+00 9.952580380e-01 -9.726992206e-02 9.952580380e-01 -9.726992206e-02 0.000000000e+00 0.000000000e+00
8.047528e+09 0.000000000e+00 0.000000000e+00 9.557421431e-01 -2.942056353e-01 9.557421431e-01 -2.942056353e-01 0.000000000e+00 0.000000000e+00
8.079550e+09 0.000000000e+00 0.000000000e+00 8.776666584e-01 -4.792715690e-01 8.776666584e-01 -4.792715690e-01 0.000000000e+00 0.000000000e+00
8.111572e+09 0.000000000e+00 0.000000000e+00 7.641815533e-01 -6.450012043e-01 7.641815533e-01 -6.450012043e-01 0.000000000e+00 0.000000000e+00
8.143594e+09 0.000000000e+00 0.000000000e+00 6.198654051e-01 -7.847081493e-01 6.198654051e-01 -7.847081493e-01 0.000000000e+00 0.000000000e+00
8.175616e+09 0.000000000e+00 0.000000000e+00 4.505406748e-01 -8.927559019e-01 4.505406748e-01 -8.927559019e-01 0.000000000e+00 0.000000000e+00
8.207638e+09 0.000000000e+00 0.000000000e+00 2.630387995e-01 -9.647852559e-01 2.630387995e-01 -9.647852559e-01 0.000000000e+00 0.000000000e+00
8.239660e+09 0.000000000e+00 0.000000000e+00 6.492457608e-02 -9.978901740e-01 6.492457608e-02 -9.978901740e-01 0.000000000e+00 0.000000000e+00
8.271682e+09 0.000000000e+00 0.000000000e+00 -1.358090411e-01 -9.907350324e-01 -1.358090411e-01 -9.907350324e-01 0.000000000e+00 0.000000000e+00
8.303704e+09 0.000000000e+00 0.000000000e+00 -3.310634179e-01 -9.436085064e-01 -3.310634179e-01 -9.436085064e-01 0.000000000e+00 0.000000000e+00
8.335726e+09 0.000000000e+00 0.000000000e+00 -5.129609811e-01 -8.584119243e-01 -5.129609811e-01 -8.584119243e-01 0.000000000e+00 0.000000000e+00
8.367748e+09 0.000000000e+00 0.000000000e+00 -6.741630407e-01 -7.385825577e-01 -6.741630407e-01 -7.385825577e-01 0.000000000e+00 0.000000000e+00
8.399770e+09 0.000000000e+00 0.000000000e+00 -8.081658703e-01 -5.889549440e-01 -8.081658703e-01 -5.889549440e-01 0.000000000e+00 0.000000000e+00
8.431792e+09 0.000000000e+00 0.000000000e+00 -9.095631015e-01 -4.155658365e-01 -9.095631015e-01 -4.155658365e-01 0.000000000e+00 0.000000000e+00
8.463814e+09 0.000000000e+00 0.000000000e+00 -9.742638446e-01 -2.254106500e-01 -9.742638446e-01 -2.254106500e-01 0.000000000e+00 0.000000000e+00
8.495836e+09 0.000000000e+00 0.000000000e+00 -9.996577365e-01 -2.616123001e-02 -9.996577365e-01 -2.616123001e-02 0.000000000e+00 0.000000000e+00
8.527858e+09 0.000000000e+00 0.000000000e+00 -9.847202559e-01 1.741436695e-01 -9.847202559e-01 1.741436695e-01 0.000000000e+00 0.000000000e+00
8.559880e+09 0.000000000e+00 0.000000000e+00 -9.300540583e-01 3.674227112e-01 -9.300540583e-01 3.674227112e-01 0.000000000e+00 0.000000000e+00
8.591902e+09 0.000000000e+00 0.000000000e+00 -8.378646612e-01 5.458780171e-01 -8.378646612e-01 5.458780171e-01 0.000000000e+00 0.000000000e+00
8.623924e+09 0.000000000e+00 0.000000000e+00 -7.118714627e-01 7.023097754e-01 -7.118714627e-01 7.023097754e-01 0.000000000e+00 0.000000000e+00
8.655946e+09 0.000000000e+00 0.000000000e+00 -5.571576810e-01 8.304067187e-01 -5.571576810e-01 8.304067187e-01 0.000000000e+00 0.000000000e+00
8.687968e+09 0.000000000e+00 0.000000000e+00 -3.799652718e-01 9.250007525e-01 -3.799652718e-01 9.250007525e-01 0.000000000e+00 0.000000000e+00
8.719990e+09 0.000000000e+00 0.000000000e+00 -1.874430949e-01 9.822754635e-01 -1.874430949e-01 9.822754635e-01 0.000000000e+00 0.000000000e+00
8.752012e+09 0.000000000e+00 0.000000000e+00 1.264150759e-02 9.999200930e-01 1.264150759e-02 9.999200930e-01 0.000000000e+00 0.000000000e+00
8.784034e+09 0.000000000e+00 0.000000000e+00 2.122160862e-01 9.772227652e-01 2.122160862e-01 9.772227652e-01 0.000000000e+00 0.000000000e+00
8.816056e+09 0.000000000e+00 0.000000000e+00 4.032287683e-01 9.150992079e-01 4.032287683e-01 9.150992079e-01 0.000000000e+00 0.000000000e+00
8.848078e+09 0.000000000e+00 0.000000000e+00 5.779731128e-01 8.160558074e-01 5.779731128e-01 8.160558074e-01 0.000000000e+00 0.000000000e+00
8.880100e+09 0.000000000e+00 0.000000000e+00 7.293990274e-01 6.840884876e-01 7.293990274e-01 6.840884876e-01 0.000000000e+00 0.000000000e+00
8.912122e+09 0.000000000e+00 0.000000000e+00 8.513972061e-01 5.245214938e-01 8.513972061e-01 5.245214938e-01 0.000000000e+00 0.000000000e+00
8.944144e+09 0.000000000e+00 0.000000000e+00 9.390456103e-01 3.437925854e-01 9.390456103e-01 3.437925854e-01 0.000000000e+00 0.000000000e+00
8.976166e+09 0.000000000e+00 0.000000000e+00 9.888080493e-01 1.491933028e-01 9.888080493e-01 1.491933028e-01 0.000000000e+00 0.000000000e+00
9.008188e+09 0.000000000e+00 0.000000000e+00 9.986768485e-01 -5.142521059e-02 9.986768485e-01 -5.142521059e-02 0.000000000e+00 0.000000000e+00
9.040210e+09 0.000000000e+00 0.000000000e+00 9.682538493e-01 -2.499689645e-01 9.682538493e-01 -2.499689645e-01 0.000000000e+00 0.000000000e+00
9.072232e+09 0.000000000e+00 0.000000000e+00 8.987664733e-01 -4.384276753e-01 8.987664733e-01 -4.384276753e-01 0.000000000e+00 0.000000000e+00
9.104254e+09 0.000000000e+00 0.000000000e+00 7.930182011e-01 -6.091979422e-01 7.930182011e-01 -6.091979422e-01 0.000000000e+00 0.000000000e+00
9.136276e+09 0.000000000e+00 0.000000000e+00 6.552754659e-01 -7.553900077e-01 6.552754659e-01 -7.553900077e-01 0.000000000e+00 0.000000000e+00
9.168298e+09 0.000000000e+00 0.000000000e+00 4.910955234e-01 -8.711057266e-01 4.910955234e-01 -8.711057266e-01 0.000000000e+00 0.000000000e+00
9.200320e+09 0.000000000e+00 0.000000000e+00 3.071022431e-01 -9.516765271e-01 3.071022431e-01 -9.516765271e-01 0.000000000e+00 0.000000000e+00
9.232342e+09 0.000000000e+00 0.000000000e+00 1.107188671e-01 -9.938517658e-01 1.107188671e-01 -9.938517658e-01 0.000000000e+00 0.000000000e+00
9.264364e+09 0.000000000e+00 0.000000000e+00 -9.013148156e-02 -9.959298751e-01 -9.013148156e-02 -9.959298751e-01 0.000000000e+00 0.000000000e+00
9.296386e+09 0.000000000e+00 0.000000000e+00 -2.873454593e-01 -9.578270131e-01 -2.873454593e-01 -9.578270131e-01 0.000000000e+00 0.000000000e+00
9.328408e+09 0.000000000e+00 0.000000000e+00 -4.729664325e-01 -8.810804468e-01 -4.729664325e-01 -8.810804468e-01 0.000000000e+00 0.000000000e+00
9.360430e+09 0.000000000e+00 0.000000000e+00 -6.395054892e-01 -7.687865303e-01 -6.395054892e-01 -7.687865303e-01 0.000000000e+00 0.000000000e+00
9.392452e+09 0.000000000e+00 0.000000000e+00 -7.802435812e-01 -6.254757821e-01 -7.802435812e-01 -6.254757821e-01 0.000000000e+00 0.000000000e+00
9.424474e+09 0.000000000e+00 0.000000000e+00 -8.895026046e-01 -4.569301001e-01 -8.895026046e-01 -4.569301001e-01 0.000000000e+00 0.000000000e+00
9.456496e+09 0.000000000e+00 0.000000000e+00 -9.628744844e-01 -2.699494904e-01 -9.628744844e-01 -2.699494904e-01 0.000000000e+00 0.000000000e+00
9.488519e+09 0.000000000e+00 0.000000000e+00 -9.973990186e-01 -7.207771973e-02 -9.973990186e-01 -7.207771973e-02 0.000000000e+00 0.000000000e+00
9.520541e+09 0.000000000e+00 0.000000000e+00 -9.916833088e-01 1.287020396e-01 -9.916833088e-01 1.287020396e-01 0.000000000e+00 0.000000000e+00
9.552563e+09 0.000000000e+00 0.000000000e+00 -9.459579563e-01 3.242892919e-01 -9.459579563e-01 3.242892919e-01 0.000000000e+00 0.000000000e+00
9.584585e+09 0.000000000e+00 0.000000000e+00 -8.620677588e-01 5.067930340e-01 -8.620677588e-01 5.067930340e-01 0.000000000e+00 0.000000000e+00
9.616607e+09 0.000000000e+00 0.000000000e+00 -7.433972814e-01 6.688501193e-01 -7.433972814e-01 6.688501193e-01 0.000000000e+00 0.000000000e+00
9.648629e+09 0.000000000e+00 0.000000000e+00 -5.947343060e-01 8.039223254e-01 -5.947343060e-01 8.039223254e-01 0.000000000e+00 0.000000000e+00
9.680651e+09 0.000000000e+00 0.000000000e+00 -4.220766673e-01 9.065601397e-01 -4.220766673e-01 9.065601397e-01 0.000000000e+00 0.000000000e+00
9.712673e+09 0.000000000e+00 0.000000000e+00 -2.323902691e-01 9.726226210e-01 -2.323902691e-01 9.726226210e-01 0.000000000e+00 0.000000000e+00
9.744695e+09 0.000000000e+00 0.000000000e+00 -3.332804336e-02 9.994444665e-01 -3.332804336e-02 9.994444665e-01 0.000000000e+00 0.000000000e+00
9.776717e+09 0.000000000e+00 0.000000000e+00 1.670788083e-01 9.859435439e-01 1.670788083e-01 9.859435439e-01 0.000000000e+00 0.000000000e+00
9.808739e+09 0.000000000e+00 0.000000000e+00 3.607448352e-01 9.326645506e-01 3.607448352e-01 9.326645506e-01 0.000000000e+00 0.000000000e+00
9.840761e+09 0.000000000e+00 0.000000000e+00 5.398565464e-01 8.417570370e-01 5.398565464e-01 8.417570370e-01 0.000000000e+00 0.000000000e+00
9.872783e+09 0.000000000e+00 0.000000000e+00 6.971876475e-01 7.168886833e-01 6.971876475e-01 7.168886833e-01 0.000000000e+00 0.000000000e+00
9.904805e+09 0.000000000e+00 0.000000000e+00 8.263905866e-01 5.630973258e-01 8.263905866e-01 5.630973258e-01 0.000000000e+00 0.000000000e+00
9.936827e+09 0.000000000e+00 0.000000000e+00 9.222526479e-01 3.865877048e-01 9.222526479e-01 3.865877048e-01 0.000000000e+00 0.000000000e+00
9.968849e+09 0.000000000e+00 0.000000000e+00 9.809062590e-01 1.944811328e-01 9.809062590e-01 1.944811328e-01 0.000000000e+00 0.000000000e+00
1.000087e+10 0.000000000e+00 0.000000000e+00 9.999850295e-01 -5.471815755e-03 9.999850295e-01 -5.471815755e-03 0.000000000e+00 0.000000000e+00
1.003289e+10 0.000000000e+00 0.000000000e+00 9.787192229e-01 -2.052040029e-01 9.787192229e-01 -2.052040029e-01 0.000000000e+00 0.000000000e+00
1.006491e+10 0.000000000e+00 0.000000000e+00 9.179668119e-01 -3.966571974e-01 9.179668119e-01 -3.966571974e-01 0.000000000e+00 0.000000000e+00
1.009694e+10 0.000000000e+00 0.000000000e+00 8.201788637e-01 -5.721071854e-01 8.201788637e-01 -5.721071854e-01 0.000000000e+00 0.000000000e+00
1.012896e+10 0.000000000e+00 0.000000000e+00 6.893006507e-01 -7.244754054e-01 6.893006507e-01 -7.244754054e-01 0.000000000e+00 0.000000000e+00
1.016098e+10 0.000000000e+00 0.000000000e+00 5.306124780e-01 -8.476145339e-01 5.306124780e-01 -8.476145339e-01 0.000000000e+00 0.000000000e+00
1.019300e+10 0.000000000e+00 0.000000000e+00 3.505166489e-01 -9.365565006e-01 3.505166489e-01 -9.365565006e-01 0.000000000e+00 0.000000000e+00
1.022503e+10 0.000000000e+00 0.000000000e+00 1.562791621e-01 -9.877129257e-01 1.562791621e-01 -9.877129257e-01 0.000000000e+00 0.000000000e+00
1.025705e+10 0.000000000e+00 0.000000000e+00 -4.426343584e-02 -9.990198938e-01 -4.426343584e-02 -9.990198938e-01 0.000000000e+00 0.000000000e+00
1.028907e+10 0.000000000e+00 0.000000000e+00 -2.430202174e-01 -9.700212234e-01 -2.430202174e-01 -9.700212234e-01 0.000000000e+00 0.000000000e+00
1.032109e+10 0.000000000e+00 0.000000000e+00 -4.319723043e-01 -9.018868711e-01 -4.319723043e-01 -9.018868711e-01 0.000000000e+00 0.000000000e+00
1.035311e+10 0.000000000e+00 0.000000000e+00 -6.034963904e-01 -7.973657296e-01 -6.034963904e-01 -7.973657296e-01 0.000000000e+00 0.000000000e+00
1.038514e+10 0.000000000e+00 0.000000000e+00 -7.506723053e-01 -6.606747234e-01 -7.506723053e-01 -6.606747234e-01 0.000000000e+00 0.000000000e+00
1.041716e+10 0.000000000e+00 0.000000000e+00 -8.675622100e-01 -4.973286758e-01 -8.675622100e-01 -4.973286758e-01 0.000000000e+00 0.000000000e+00
1.044918e+10 0.000000000e+00 0.000000000e+00 -9.494501603e-01 -3.139178127e-01 -9.494501603e-01 -3.139178127e-01 0.000000000e+00 0.000000000e+00
1.048120e+10 0.000000000e+00 0.000000000e+00 -9.930323719e-01 -1.178418785e-01 -9.930323719e-01 -1.178418785e-01 0.000000000e+00 0.000000000e+00
1.051322e+10 0.000000000e+00 0.000000000e+00 -9.965505126e-01 8.298840752e-02 -9.965505126e-01 8.298840752e-02 0.000000000e+00 0.000000000e+00
1.054525e+10 0.000000000e+00 0.000000000e+00 -9.598626424e-01 2.804705112e-01 -9.598626424e-01 2.804705112e-01 0.000000000e+00 0.000000000e+00
1.057727e+10 0.000000000e+00 0.000000000e+00 -8.844489401e-01 4.666369814e-01 -8.844489401e-01 4.666369814e-01 0.000000000e+00 0.000000000e+00
1.060929e+10 0.000000000e+00 0.000000000e+00 -7.733519850e-01 6.339768980e-01 -7.733519850e-01 6.339768980e-01 0.000000000e+00 0.000000000e+00
1.064131e+10 0.000000000e+00 0.000000000e+00 -6.310540041e-01 7.757389019e-01 -6.310540041e-01 7.757389019e-01 0.000000000e+00 0.000000000e+00
1.067333e+10 0.000000000e+00 0.000000000e+00 -4.632960351e-01 8.862035792e-01 -4.632960351e-01 8.862035792e-01 0.000000000e+00 0.000000000e+00
1.070536e+10 0.000000000e+00 0.000000000e+00 -2.768463037e-01 9.609142127e-01 -2.768463037e-01 9.609142127e-01 0.000000000e+00 0.000000000e+00
1.073738e+10 0.000000000e+00 0.000000000e+00 -7.922715795e-02 9.968565882e-01 -7.922715795e-02 9.968565882e-01 0.000000000e+00 0.000000000e+00
1.076940e+10 0.000000000e+00 0.000000000e+00 1.215884218e-01 9.925806041e-01 1.215884218e-01 9.925806041e-01 0.000000000e+00 0.000000000e+00
1.080142e+10 0.000000000e+00 0.000000000e+00 3.174984947e-01 9.482587758e-01 3.174984947e-01 9.482587758e-01 0.000000000e+00 0.000000000e+00
1.083344e+10 0.000000000e+00 0.000000000e+00 5.005990332e-01 8.656792754e-01 5.005990332e-01 8.656792754e-01 0.000000000e+00 0.000000000e+00
1.086547e+10 0.000000000e+00 0.000000000e+00 6.635028132e-01 7.481737879e-01 6.635028132e-01 7.481737879e-01 0.000000000e+00 0.000000000e+00
1.089749e+10 0.000000000e+00 0.000000000e+00 7.996374519e-01 6.004830934e-01 7.996374519e-01 6.004830934e-01 0.000000000e+00 0.000000000e+00
1.092951e+10 0.000000000e+00 0.000000000e+00 9.035105729e-01 4.285657998e-01 9.035105729e-01 4.285657998e-01 0.000000000e+00 0.000000000e+00
1.096153e+10 0.000000000e+00 0.000000000e+00 9.709313961e-01 2.393579413e-01 9.709313961e-01 2.393579413e-01 0.000000000e+00 0.000000000e+00
1.099355e+10 0.000000000e+00 0.000000000e+00 9.991798163e-01 4.049314336e-02 9.991798163e-01 4.049314336e-02 0.000000000e+00 0.000000000e+00
1.102558e+10 0.000000000e+00 0.000000000e+00 9.871161459e-01 -1.600053578e-01 9.871161459e-01 -1.600053578e-01 0.000000000e+00 0.000000000e+00
1.105760e+10 0.000000000e+00 0.000000000e+00 9.352270958e-01 -3.540484138e-01 9.352270958e-01 -3.540484138e-01 0.000000000e+00 0.000000000e+00
1.108962e+10 0.000000000e+00 0.000000000e+00 8.456061391e-01 -5.338073225e-01 8.456061391e-01 -5.338073225e-01 0.000000000e+00 0.000000000e+00
1.112164e+10 0.000000000e+00 0.000000000e+00 7.218690496e-01 -6.920296780e-01 7.218690496e-01 -6.920296780e-01 0.000000000e+00 0.000000000e+00
1.115366e+10 0.000000000e+00 0.000000000e+00 5.690080226e-01 -8.223319708e-01 5.690080226e-01 -8.223319708e-01 0.000000000e+00 0.000000000e+00
1.118569e+10 0.000000000e+00 0.000000000e+00 3.931902638e-01 -9.194571314e-01 3.931902638e-01 -9.194571314e-01 0.000000000e+00 0.000000000e+00
1.121771e+10 0.000000000e+00 0.000000000e+00 2.015091726e-01 -9.794866274e-01 2.015091726e-01 -9.794866274e-01 0.000000000e+00 0.000000000e+00
1.124973e+10 0.000000000e+00 0.000000000e+00 1.698157375e-03 -9.999985581e-01 1.698157375e-03 -9.999985581e-01 0.000000000e+00 0.000000000e+00
1.128175e+10 0.000000000e+00 0.000000000e+00 -1.981813703e-01 -9.801653659e-01 -1.981813703e-01 -9.801653659e-01 0.000000000e+00 0.000000000e+00
1.131377e+10 0.000000000e+00 0.000000000e+00 -3.900652348e-01 -9.207872244e-01 -3.900652348e-01 -9.207872244e-01 0.000000000e+00 0.000000000e+00
1.134580e+10 0.000000000e+00 0.000000000e+00 -5.662118466e-01 -8.242597556e-01 -5.662118466e-01 -8.242597556e-01 0.000000000e+00 0.000000000e+00
1.137782e+10 0.000000000e+00 0.000000000e+00 -7.195145390e-01 -6.944773777e-01 -7.195145390e-01 -6.944773777e-01 0.000000000e+00 0.000000000e+00
1.140984e+10 0.000000000e+00 0.000000000e+00 -8.437882870e-01 -5.366761842e-01 -8.437882870e-01 -5.366761842e-01 0.000000000e+00 0.000000000e+00
1.144186e+10 0.000000000e+00 0.000000000e+00 -9.340192438e-01 -3.572226929e-01 -9.340192438e-01 -3.572226929e-01 0.000000000e+00 0.000000000e+00
1.147388e+10 0.000000000e+00 0.000000000e+00 -9.865670249e-01 -1.633569873e-01 -9.865670249e-01 -1.633569873e-01 0.000000000e+00 0.000000000e+00
1.150591e+10 0.000000000e+00 0.000000000e+00 -9.993115808e-01 3.709938556e-02 -9.993115808e-01 3.709938556e-02 0.000000000e+00 0.000000000e+00
1.153793e+10 0.000000000e+00 0.000000000e+00 -9.717387300e-01 2.360589770e-01 -9.717387300e-01 2.360589770e-01 0.000000000e+00 0.000000000e+00
1.156995e+10 0.000000000e+00 0.000000000e+00 -9.049609041e-01 4.254947262e-01 -9.049609041e-01 4.254947262e-01 0.000000000e+00 0.000000000e+00
1.160197e+10 0.000000000e+00 0.000000000e+00 -8.016722667e-01 5.977638136e-01 -8.016722667e-01 5.977638136e-01 0.000000000e+00 0.000000000e+00
1.163399e+10 0.000000000e+00 0.000000000e+00 -6.660400164e-01 7.459160117e-01 -6.660400164e-01 7.459160117e-01 0.000000000e+00 0.000000000e+00
1.166602e+10 0.000000000e+00 0.000000000e+00 -5.035362611e-01 8.639740932e-01 -5.035362611e-01 8.639740932e-01 0.000000000e+00 0.000000000e+00
1.169804e+10 0.000000000e+00 0.000000000e+00 -3.207172441e-01 9.471749835e-01 -3.207172441e-01 9.471749835e-01 0.000000000e+00 0.000000000e+00
1.173006e+10 0.000000000e+00 0.000000000e+00 -1.249588318e-01 9.921619275e-01 -1.249588318e-01 9.921619275e-01 0.000000000e+00 0.000000000e+00
1.176208e+10 0.000000000e+00 0.000000000e+00 7.584106716e-02 9.971199188e-01 7.584106716e-02 9.971199188e-01 0.000000000e+00 0.000000000e+00
1.179410e+10 0.000000000e+00 0.000000000e+00 2.735811446e-01 9.618489265e-01 2.735811446e-01 9.618489265e-01 0.000000000e+00 0.000000000e+00
1.182613e+10 0.000000000e+00 0.000000000e+00 4.602835411e-01 8.877719650e-01 4.602835411e-01 8.877719650e-01 0.000000000e+00 0.000000000e+00
1.185815e+10 0.000000000e+00 0.000000000e+00 6.284157149e-01 7.778776827e-01 6.284157149e-01 7.778776827e-01 0.000000000e+00 0.000000000e+00
1.189017e+10 0.000000000e+00 0.000000000e+00 7.711943428e-01 6.365997845e-01 7.711943428e-01 6.365997845e-01 0.000000000e+00 0.000000000e+00
1.192219e+10 0.000000000e+00 0.000000000e+00 8.828589953e-01 4.696381527e-01 8.828589953e-01 4.696381527e-01 0.000000000e+00 0.000000000e+00
1.195421e+10 0.000000000e+00 0.000000000e+00 9.589045417e-01 2.837288846e-01 9.589045417e-01 2.837288846e-01 0.000000000e+00 0.000000000e+00
1.198624e+10 0.000000000e+00 0.000000000e+00 9.962629107e-01 8.637252321e-02 9.962629107e-01 8.637252321e-02 0.000000000e+00 0.000000000e+00
1.201826e+10 0.000000000e+00 0.000000000e+00 9.934268722e-01 -1.144685533e-01 9.934268722e-01 -1.144685533e-01 0.000000000e+00 0.000000000e+00
1.205028e+10 0.000000000e+00 0.000000000e+00 9.505108465e-01 -3.106913752e-01 9.505108465e-01 -3.106913752e-01 0.000000000e+00 0.000000000e+00
1.208230e+10 0.000000000e+00 0.000000000e+00 8.692462887e-01 -4.943792974e-01 8.692462887e-01 -4.943792974e-01 0.000000000e+00 0.000000000e+00
1.211432e+10 0.000000000e+00 0.000000000e+00 7.529118318e-01 -6.581213972e-01 7.529118318e-01 -6.581213972e-01 0.000000000e+00 0.000000000e+00
1.214635e+10 0.000000000e+00 0.000000000e+00 6.062010108e-01 -7.953114701e-01 6.062010108e-01 -7.953114701e-01 0.000000000e+00 0.000000000e+00
1.217837e+10 0.000000000e+00 0.000000000e+00 4.350329002e-01 -9.004145577e-01 4.350329002e-01 -9.004145577e-01 0.000000000e+00 0.000000000e+00
1.221039e+10 0.000000000e+00 0.000000000e+00 2.463133084e-01 -9.691902569e-01 2.463133084e-01 -9.691902569e-01 0.000000000e+00 0.000000000e+00
1.224241e+10 0.000000000e+00 0.000000000e+00 4.765616166e-02 -9.988637997e-01 4.765616166e-02 -9.988637997e-01 0.000000000e+00 0.000000000e+00
1.227443e+10 0.000000000e+00 0.000000000e+00 -1.529236816e-01 -9.882380015e-01 -1.529236816e-01 -9.882380015e-01 0.000000000e+00 0.000000000e+00
1.230646e+10 0.000000000e+00 0.000000000e+00 -3.473337912e-01 -9.377415622e-01 -3.473337912e-01 -9.377415622e-01 0.000000000e+00 0.000000000e+00
1.233848e+10 0.000000000e+00 0.000000000e+00 -5.277306562e-01 -8.494117697e-01 -5.277306562e-01 -8.494117697e-01 0.000000000e+00 0.000000000e+00
1.237050e+10 0.000000000e+00 0.000000000e+00 -6.868361322e-01 -7.268123056e-01 -6.868361322e-01 -7.268123056e-01 0.000000000e+00 0.000000000e+00
1.240252e+10 0.000000000e+00 0.000000000e+00 -8.182310801e-01 -5.748894673e-01 -8.182310801e-01 -5.748894673e-01 0.000000000e+00 0.000000000e+00
1.243454e+10 0.000000000e+00 0.000000000e+00 -9.166143468e-01 -3.997726094e-01 -9.166143468e-01 -3.997726094e-01 0.000000000e+00 0.000000000e+00
1.246657e+10 0.000000000e+00 0.000000000e+00 -9.780166417e-01 -2.085268531e-01 -9.780166417e-01 -2.085268531e-01 0.000000000e+00 0.000000000e+00
1.249859e+10 0.000000000e+00 0.000000000e+00 -9.999606781e-01 -8.868043205e-03 -9.999606781e-01 -8.868043205e-03 0.000000000e+00 0.000000000e+00
1.253061e+10 0.000000000e+00 0.000000000e+00 -9.815611199e-01 1.911485495e-01 -9.815611199e-01 1.911485495e-01 0.000000000e+00 0.000000000e+00
1.256263e+10 0.000000000e+00 0.000000000e+00 -9.235603004e-01 3.834532194e-01 -9.235603004e-01 3.834532194e-01 0.000000000e+00 0.000000000e+00
1.259465e+10 0.000000000e+00 0.000000000e+00 -8.282982734e-01 5.602873997e-01 -8.282982734e-01 5.602873997e-01 0.000000000e+00 0.000000000e+00
1.262668e+10 0.000000000e+00 0.000000000e+00 -6.996184026e-01 7.145166834e-01 -6.996184026e-01 7.145166834e-01 0.000000000e+00 0.000000000e+00
1.265870e+10 0.000000000e+00 0.000000000e+00 -5.427123005e-01 8.399186621e-01 -5.427123005e-01 8.399186621e-01 0.000000000e+00 0.000000000e+00
1.269072e+10 0.000000000e+00 0.000000000e+00 -3.639103724e-01 9.314339702e-01 -3.639103724e-01 9.314339702e-01 0.000000000e+00 0.000000000e+00
1.272274e+10 0.000000000e+00 0.000000000e+00 -1.704264145e-01 9.853704061e-01 -1.704264145e-01 9.853704061e-01 0.000000000e+00 0.000000000e+00
1.275476e+10 0.000000000e+00 0.000000000e+00 2.993342805e-02 9.995518945e-01 2.993342805e-02 9.995518945e-01 0.000000000e+00 0.000000000e+00
1.278679e+10 0.000000000e+00 0.000000000e+00 2.290856010e-01 9.734062808e-01 2.290856010e-01 9.734062808e-01 0.000000000e+00 0.000000000e+00
1.281881e+10 0.000000000e+00 0.000000000e+00 4.189952739e-01 9.079884143e-01 4.189952739e-01 9.079884143e-01 0.000000000e+00 0.000000000e+00
1.285083e+10 0.000000000e+00 0.000000000e+00 5.920005066e-01 8.059375908e-01 5.920005066e-01 8.059375908e-01 0.000000000e+00 0.000000000e+00
1.288285e+10 0.000000000e+00 0.000000000e+00 7.411213716e-01 6.713710692e-01 7.411213716e-01 6.713710692e-01 0.000000000e+00 0.000000000e+00
1.291487e+10 0.000000000e+00 0.000000000e+00 8.603415606e-01 5.097179603e-01 8.603415606e-01 5.097179603e-01 0.000000000e+00 0.000000000e+00
1.294690e+10 0.000000000e+00 0.000000000e+00 9.448511136e-01 3.275001879e-01 9.448511136e-01 3.275001879e-01 0.000000000e+00 0.000000000e+00
1.297892e+10 0.000000000e+00 0.000000000e+00 9.912404773e-01 1.320693611e-01 9.912404773e-01 1.320693611e-01 0.000000000e+00 0.000000000e+00
1.301094e+10 0.000000000e+00 0.000000000e+00 9.976380644e-01 -6.868982790e-02 9.976380644e-01 -6.868982790e-02 0.000000000e+00 0.000000000e+00
1.304296e+10 0.000000000e+00 0.000000000e+00 9.637857631e-01 -2.666777134e-01 9.637857631e-01 -2.666777134e-01 0.000000000e+00 0.000000000e+00
1.307498e+10 0.000000000e+00 0.000000000e+00 8.910493507e-01 -4.539064383e-01 8.910493507e-01 -4.539064383e-01 0.000000000e+00 0.000000000e+00
1.310701e+10 0.000000000e+00 0.000000000e+00 7.823633908e-01 -6.228222257e-01 7.823633908e-01 -6.228222257e-01 0.000000000e+00 0.000000000e+00
1.313903e+10 0.000000000e+00 0.000000000e+00 6.421128382e-01 -7.666101376e-01 6.421128382e-01 -7.666101376e-01 0.000000000e+00 0.000000000e+00
1.317105e+10 0.000000000e+00 0.000000000e+00 4.759561268e-01 -8.794690246e-01 4.759561268e-01 -8.794690246e-01 0.000000000e+00 0.000000000e+00
1.320307e+10 0.000000000e+00 0.000000000e+00 2.905968794e-01 -9.568455746e-01 2.905968794e-01 -9.568455746e-01 0.000000000e+00 0.000000000e+00
1.323510e+10 0.000000000e+00 0.000000000e+00 9.351344818e-02 -9.956180166e-01 9.351344818e-02 -9.956180166e-01 0.000000000e+00 0.000000000e+00
1.326712e+10 0.000000000e+00 0.000000000e+00 -1.073428000e-01 -9.942220694e-01 -1.073428000e-01 -9.942220694e-01 0.000000000e+00 0.000000000e+00
1.329914e+10 0.000000000e+00 0.000000000e+00 -3.038682835e-01 -9.527140527e-01 -3.038682835e-01 -9.527140527e-01 0.000000000e+00 0.000000000e+00
1.333116e+10 0.000000000e+00 0.000000000e+00 -4.881341461e-01 -8.727686151e-01 -4.881341461e-01 -8.727686151e-01 0.000000000e+00 0.000000000e+00
1.336318e+10 0.000000000e+00 0.000000000e+00 -6.527061481e-01 -7.576111695e-01 -6.527061481e-01 -7.576111695e-01 0.000000000e+00 0.000000000e+00
1.339521e+10 0.000000000e+00 0.000000000e+00 -7.909446024e-01 -6.118877642e-01 -7.909446024e-01 -6.118877642e-01 0.000000000e+00 0.000000000e+00
1.342723e+10 0.000000000e+00 0.000000000e+00 -8.972722534e-01 -4.414776362e-01 -8.972722534e-01 -4.414776362e-01 0.000000000e+00 0.000000000e+00
1.345925e+10 0.000000000e+00 0.000000000e+00 -9.673992929e-01 -2.532560129e-01 -9.673992929e-01 -2.532560129e-01 0.000000000e+00 0.000000000e+00
1.349127e+10 0.000000000e+00 0.000000000e+00 -9.984964327e-01 -5.481673002e-02 -9.984964327e-01 -5.481673002e-02 0.000000000e+00 0.000000000e+00
1.352329e+10 0.000000000e+00 0.000000000e+00 -9.893090531e-01 1.458341438e-01 -9.893090531e-01 1.458341438e-01 0.000000000e+00 0.000000000e+00
1.355532e+10 0.000000000e+00 0.000000000e+00 -9.402078205e-01 3.406013127e-01 -9.402078205e-01 3.406013127e-01 0.000000000e+00 0.000000000e+00
1.358734e+10 0.000000000e+00 0.000000000e+00 -8.531737332e-01 5.216268599e-01 -8.531737332e-01 5.216268599e-01 0.000000000e+00 0.000000000e+00
1.361936e+10 0.000000000e+00 0.000000000e+00 -7.317181971e-01 6.816072770e-01 -7.317181971e-01 6.816072770e-01 0.000000000e+00 0.000000000e+00
1.365138e+10 0.000000000e+00 0.000000000e+00 -5.807413578e-01 8.140881251e-01 -5.807413578e-01 8.140881251e-01 0.000000000e+00 0.000000000e+00
1.368340e+10 0.000000000e+00 0.000000000e+00 -4.063344032e-01 9.137244403e-01 -4.063344032e-01 9.137244403e-01 0.000000000e+00 0.000000000e+00
1.371543e+10 0.000000000e+00 0.000000000e+00 -2.155338135e-01 9.764963775e-01 -2.155338135e-01 9.764963775e-01 0.000000000e+00 0.000000000e+00
1.374745e+10 0.000000000e+00 0.000000000e+00 -1.603747314e-02 9.998713915e-01 -1.603747314e-02 9.998713915e-01 0.000000000e+00 0.000000000e+00
1.377947e+10 0.000000000e+00 0.000000000e+00 1.841059020e-01 9.829064131e-01 1.841059020e-01 9.829064131e-01 0.000000000e+00 0.000000000e+00
1.381149e+10 0.000000000e+00 0.000000000e+00 3.768214912e-01 9.262858974e-01 3.768214912e-01 9.262858974e-01 0.000000000e+00 0.000000000e+00
1.384351e+10 0.000000000e+00 0.000000000e+00 5.543341491e-01 8.322942095e-01 5.543341491e-01 8.322942095e-01 0.000000000e+00 0.000000000e+00
1.387554e+10 0.000000000e+00 0.000000000e+00 7.094820953e-01 7.047234609e-01 7.094820953e-01 7.047234609e-01 0.000000000e+00 0.000000000e+00
1.390756e+10 0.000000000e+00 0.000000000e+00 8.360058580e-01 5.487205167e-01 8.360058580e-01 5.487205167e-01 0.000000000e+00 0.000000000e+00
1.393958e+10 0.000000000e+00 0.000000000e+00 9.288008128e-01 3.705793439e-01 9.288008128e-01 3.705793439e-01 0.000000000e+00 0.000000000e+00
1.397160e+10 0.000000000e+00 0.000000000e+00 9.841231307e-01 1.774870803e-01 9.841231307e-01 1.774870803e-01 0.000000000e+00 0.000000000e+00
1.400362e+10 0.000000000e+00 0.000000000e+00 9.997408226e-01 -2.276593170e-02 9.997408226e-01 -2.276593170e-02 0.000000000e+00 0.000000000e+00
1.403565e+10 0.000000000e+00 0.000000000e+00 9.750237900e-01 -2.221004481e-01 9.750237900e-01 -2.221004481e-01 0.000000000e+00 0.000000000e+00
1.406767e+10 0.000000000e+00 0.000000000e+00 9.109692459e-01 -4.124742816e-01 9.109692459e-01 -4.124742816e-01 0.000000000e+00 0.000000000e+00
1.409969e+10 0.000000000e+00 0.000000000e+00 8.101614827e-01 -5.862067656e-01 8.101614827e-01 -5.862067656e-01 0.000000000e+00 0.000000000e+00
1.413171e+10 0.000000000e+00 0.000000000e+00 6.766676077e-01 -7.362886314e-01 6.766676077e-01 -7.362886314e-01 0.000000000e+00 0.000000000e+00
1.416373e+10 0.000000000e+00 0.000000000e+00 5.158734555e-01 -8.566647990e-01 5.158734555e-01 -8.566647990e-01 0.000000000e+00 0.000000000e+00
1.419576e+10 0.000000000e+00 0.000000000e+00 3.342662954e-01 -9.424786702e-01 3.342662954e-01 -9.424786702e-01 0.000000000e+00 0.000000000e+00
1.422778e+10 0.000000000e+00 0.000000000e+00 1.391731010e-01 -9.902680687e-01 1.391731010e-01 -9.902680687e-01 0.000000000e+00 0.000000000e+00
1.425980e+10 0.000000000e+00 0.000000000e+00 -6.153505740e-02 -9.981049227e-01 -6.153505740e-02 -9.981049227e-01 0.000000000e+00 0.000000000e+00
1.429182e+10 0.000000000e+00 0.000000000e+00 -2.597605727e-01 -9.656730528e-01 -2.597605727e-01 -9.656730528e-01 0.000000000e+00 0.000000000e+00
1.432384e+10 0.000000000e+00 0.000000000e+00 -4.475060007e-01 -8.942809287e-01 -4.475060007e-01 -8.942809287e-01 0.000000000e+00 0.000000000e+00
1.435587e+10 0.000000000e+00 0.000000000e+00 -6.171967180e-01 -7.868088785e-01 -6.171967180e-01 -7.868088785e-01 0.000000000e+00 0.000000000e+00
1.438789e+10 0.000000000e+00 0.000000000e+00 -7.619865220e-01 -6.475928816e-01 -7.619865220e-01 -6.475928816e-01 0.000000000e+00 0.000000000e+00
1.441991e+10 0.000000000e+00 0.000000000e+00 -8.760338417e-01 -4.822496327e-01 -8.760338417e-01 -4.822496327e-01 0.000000000e+00 0.000000000e+00
1.445193e+10 0.000000000e+00 0.000000000e+00 -9.547374174e-01 -2.974499350e-01 -9.547374174e-01 -2.974499350e-01 0.000000000e+00 0.000000000e+00
1.448395e+10 0.000000000e+00 0.000000000e+00 -9.949219391e-01 -1.006495657e-01 -9.949219391e-01 -1.006495657e-01 0.000000000e+00 0.000000000e+00
1.451598e+10 0.000000000e+00 0.000000000e+00 -9.949661550e-01 1.002115284e-01 -9.949661550e-01 1.002115284e-01 0.000000000e+00 0.000000000e+00
1.454800e+10 0.000000000e+00 0.000000000e+00 -9.548682811e-01 2.970295704e-01 -9.548682811e-01 2.970295704e-01 0.000000000e+00 0.000000000e+00
1.458002e+10 0.000000000e+00 0.000000000e+00 -8.762460736e-01 4.818639005e-01 -8.762460736e-01 4.818639005e-01 0.000000000e+00 0.000000000e+00
1.461204e+10 0.000000000e+00 0.000000000e+00 -7.622715594e-01 6.472573442e-01 -7.622715594e-01 6.472573442e-01 0.000000000e+00 0.000000000e+00
1.464406e+10 0.000000000e+00 0.000000000e+00 -6.175430612e-01 7.865370732e-01 -6.175430612e-01 7.865370732e-01 0.000000000e+00 0.000000000e+00
1.467609e+10 0.000000000e+00 0.000000000e+00 -4.478996763e-01 8.940838215e-01 -4.478996763e-01 8.940838215e-01 0.000000000e+00 0.000000000e+00
1.470811e+10 0.000000000e+00 0.000000000e+00 -2.601856979e-01 9.655585962e-01 -2.601856979e-01 9.655585962e-01 0.000000000e+00 0.000000000e+00
1.474013e+10 0.000000000e+00 0.000000000e+00 -6.197448032e-02 9.980777343e-01 -6.197448032e-02 9.980777343e-01 0.000000000e+00 0.000000000e+00
1.477215e+10 0.000000000e+00 0.000000000e+00 1.387371089e-01 9.903292456e-01 1.387371089e-01 9.903292456e-01 0.000000000e+00 0.000000000e+00
1.480417e+10 0.000000000e+00 0.000000000e+00 3.338513243e-01 9.426257440e-01 3.338513243e-01 9.426257440e-01 0.000000000e+00 0.000000000e+00
1.483620e+10 0.000000000e+00 0.000000000e+00 5.154962475e-01 8.568918361e-01 5.154962475e-01 8.568918361e-01 0.000000000e+00 0.000000000e+00
1.486822e+10 0.000000000e+00 0.000000000e+00 6.763433813e-01 7.365864719e-01 6.763433813e-01 7.365864719e-01 0.000000000e+00 0.000000000e+00
1.490024e+10 0.000000000e+00 0.000000000e+00 8.099033189e-01 5.865633930e-01 8.099033189e-01 5.865633930e-01 0.000000000e+00 0.000000000e+00
1.493226e+10 0.000000000e+00 0.000000000e+00 9.107875604e-01 4.128753079e-01 9.107875604e-01 4.128753079e-01 0.000000000e+00 0.000000000e+00
1.496428e+10 0.000000000e+00 0.000000000e+00 9.749259128e-01 2.225296936e-01 9.749259128e-01 2.225296936e-01 0.000000000e+00 0.000000000e+00
1.499631e+10 0.000000000e+00 0.000000000e+00 9.997307027e-01 2.320607861e-02 9.997307027e-01 2.320607861e-02 0.000000000e+00 0.000000000e+00
1.502833e+10 0.000000000e+00 0.000000000e+00 9.842011763e-01 -1.770537899e-01 9.842011763e-01 -1.770537899e-01 0.000000000e+00 0.000000000e+00
1.506035e+10 0.000000000e+00 0.000000000e+00 9.289638753e-01 -3.701703911e-01 9.289638753e-01 -3.701703911e-01 0.000000000e+00 0.000000000e+00
1.509237e+10 0.000000000e+00 0.000000000e+00 8.362473584e-01 -5.483524009e-01 8.362473584e-01 -5.483524009e-01 0.000000000e+00 0.000000000e+00
1.512439e+10 0.000000000e+00 0.000000000e+00 7.097922904e-01 -7.044110338e-01 7.097922904e-01 -7.044110338e-01 0.000000000e+00 0.000000000e+00
1.515642e+10 0.000000000e+00 0.000000000e+00 5.547005239e-01 -8.320500759e-01 5.547005239e-01 -8.320500759e-01 0.000000000e+00 0.000000000e+00
1.518844e+10 0.000000000e+00 0.000000000e+00 3.772292643e-01 -9.261199070e-01 3.772292643e-01 -9.261199070e-01 0.000000000e+00 0.000000000e+00
1.522046e+10 0.000000000e+00 0.000000000e+00 1.845386217e-01 -9.828252627e-01 1.845386217e-01 -9.828252627e-01 0.000000000e+00 0.000000000e+00
1.525248e+10 0.000000000e+00 0.000000000e+00 -1.559726499e-02 -9.998783553e-01 -1.559726499e-02 -9.998783553e-01 0.000000000e+00 0.000000000e+00
1.528450e+10 0.000000000e+00 0.000000000e+00 -2.151038772e-01 -9.765911744e-01 -2.151038772e-01 -9.765911744e-01 0.000000000e+00 0.000000000e+00
1.531653e+10 0.000000000e+00 0.000000000e+00 -4.059320845e-01 -9.139032458e-01 -4.059320845e-01 -9.139032458e-01 0.000000000e+00 0.000000000e+00
1.534855e+10 0.000000000e+00 0.000000000e+00 -5.803828884e-01 -8.143437252e-01 -5.803828884e-01 -8.143437252e-01 0.000000000e+00 0.000000000e+00
1.538057e+10 0.000000000e+00 0.000000000e+00 -7.314180395e-01 -6.819293596e-01 -7.314180395e-01 -6.819293596e-01 0.000000000e+00 0.000000000e+00
1.541259e+10 0.000000000e+00 0.000000000e+00 -8.529439974e-01 -5.220024304e-01 -8.529439974e-01 -5.220024304e-01 0.000000000e+00 0.000000000e+00
1.544461e+10 0.000000000e+00 0.000000000e+00 -9.400577752e-01 -3.410152186e-01 -9.400577752e-01 -3.410152186e-01 0.000000000e+00 0.000000000e+00
1.547664e+10 0.000000000e+00 0.000000000e+00 -9.892447518e-01 -1.462696861e-01 -9.892447518e-01 -1.462696861e-01 0.000000000e+00 0.000000000e+00
1.550866e+10 0.000000000e+00 0.000000000e+00 -9.985204697e-01 5.437712345e-02 -9.985204697e-01 5.437712345e-02 0.000000000e+00 0.000000000e+00
1.554068e+10 0.000000000e+00 0.000000000e+00 -9.675106985e-01 2.528300781e-01 -9.675106985e-01 2.528300781e-01 0.000000000e+00 0.000000000e+00
1.557270e+10 0.000000000e+00 0.000000000e+00 -8.974665328e-01 4.410825574e-01 -8.974665328e-01 4.410825574e-01 0.000000000e+00 0.000000000e+00
1.560472e+10 0.000000000e+00 0.000000000e+00 -7.912139174e-01 6.115394811e-01 -7.912139174e-01 6.115394811e-01 0.000000000e+00 0.000000000e+00
1.563675e+10 0.000000000e+00 0.000000000e+00 -6.530396332e-01 7.573237336e-01 -6.530396332e-01 7.573237336e-01 0.000000000e+00 0.000000000e+00
1.566877e+10 0.000000000e+00 0.000000000e+00 -4.885183467e-01 8.725536230e-01 -4.885183467e-01 8.725536230e-01 0.000000000e+00 0.000000000e+00
1.570079e+10 0.000000000e+00 0.000000000e+00 -3.042876990e-01 9.525801784e-01 -3.042876990e-01 9.525801784e-01 0.000000000e+00 0.000000000e+00
1.573281e+10 0.000000000e+00 0.000000000e+00 -1.077805090e-01 9.941747140e-01 -1.077805090e-01 9.941747140e-01 0.000000000e+00 0.000000000e+00
1.576483e+10 0.000000000e+00 0.000000000e+00 9.307510512e-02 9.956590907e-01 9.307510512e-02 9.956590907e-01 0.000000000e+00 0.000000000e+00
1.579686e+10 0.000000000e+00 0.000000000e+00 2.901755873e-01 9.569734210e-01 2.901755873e-01 9.569734210e-01 0.000000000e+00 0.000000000e+00
1.582888e+10 0.000000000e+00 0.000000000e+00 4.755688829e-01 8.796784854e-01 4.755688829e-01 8.796784854e-01 0.000000000e+00 0.000000000e+00
1.586090e+10 0.000000000e+00 0.000000000e+00 6.417752657e-01 7.668927620e-01 6.417752657e-01 7.668927620e-01 0.000000000e+00 0.000000000e+00
1.589292e+10 0.000000000e+00 0.000000000e+00 7.820891092e-01 6.231666111e-01 7.820891092e-01 6.231666111e-01 0.000000000e+00 0.000000000e+00
1.592494e+10 0.000000000e+00 0.000000000e+00 8.908494260e-01 4.542986905e-01 8.908494260e-01 4.542986905e-01 0.000000000e+00 0.000000000e+00
1.595697e+10 0.000000000e+00 0.000000000e+00 9.636682613e-01 2.671020070e-01 9.636682613e-01 2.671020070e-01 0.000000000e+00 0.000000000e+00
1.598899e+10 0.000000000e+00 0.000000000e+00 9.976077261e-01 6.912904459e-02 9.976077261e-01 6.912904459e-02 0.000000000e+00 0.000000000e+00
1.602101e+10 0.000000000e+00 0.000000000e+00 9.912985265e-01 -1.316329416e-01 9.912985265e-01 -1.316329416e-01 0.000000000e+00 0.000000000e+00
1.605303e+10 0.000000000e+00 0.000000000e+00 9.449952083e-01 -3.270841730e-01 9.449952083e-01 -3.270841730e-01 0.000000000e+00 0.000000000e+00
1.608506e+10 0.000000000e+00 0.000000000e+00 8.605658873e-01 -5.093391341e-01 8.605658873e-01 -5.093391341e-01 0.000000000e+00 0.000000000e+00
1.611708e+10 0.000000000e+00 0.000000000e+00 7.414168797e-01 -6.710447157e-01 7.414168797e-01 -6.710447157e-01 0.000000000e+00 0.000000000e+00
1.614910e+10 0.000000000e+00 0.000000000e+00 5.923552739e-01 -8.056768766e-01 5.923552739e-01 -8.056768766e-01 0.000000000e+00 0.000000000e+00
1.618112e+10 0.000000000e+00 0.000000000e+00 4.193949872e-01 -9.078038581e-01 4.193949872e-01 -9.078038581e-01 0.000000000e+00 0.000000000e+00
1.621314e+10 0.000000000e+00 0.000000000e+00 2.295141338e-01 -9.733053285e-01 2.295141338e-01 -9.733053285e-01 0.000000000e+00 0.000000000e+00
1.624517e+10 0.000000000e+00 0.000000000e+00 3.037349108e-02 -9.995386191e-01 3.037349108e-02 -9.995386191e-01 0.000000000e+00 0.000000000e+00
1.627719e+10 0.000000000e+00 0.000000000e+00 -1.699925756e-01 -9.854453431e-01 -1.699925756e-01 -9.854453431e-01 0.000000000e+00 0.000000000e+00
1.630921e+10 0.000000000e+00 0.000000000e+00 -3.635002611e-01 -9.315940963e-01 -3.635002611e-01 -9.315940963e-01 0.000000000e+00 0.000000000e+00
1.634123e+10 0.000000000e+00 0.000000000e+00 -5.423424626e-01 -8.401575169e-01 -5.423424626e-01 -8.401575169e-01 0.000000000e+00 0.000000000e+00
1.637325e+10 0.000000000e+00 0.000000000e+00 -6.993037593e-01 -7.148246304e-01 -6.993037593e-01 -7.148246304e-01 0.000000000e+00 0.000000000e+00
1.640528e+10 0.000000000e+00 0.000000000e+00 -8.280515192e-01 -5.606520147e-01 -8.280515192e-01 -5.606520147e-01 0.000000000e+00 0.000000000e+00
1.643730e+10 0.000000000e+00 0.000000000e+00 -9.233913906e-01 -3.838597919e-01 -9.233913906e-01 -3.838597919e-01 0.000000000e+00 0.000000000e+00
1.646932e+10 0.000000000e+00 0.000000000e+00 -9.814768691e-01 -1.915806763e-01 -9.814768691e-01 -1.915806763e-01 0.000000000e+00 0.000000000e+00
1.650134e+10 0.000000000e+00 0.000000000e+00 -9.999644855e-01 8.427796437e-03 -9.999644855e-01 8.427796437e-03 0.000000000e+00 0.000000000e+00
1.653336e+10 0.000000000e+00 0.000000000e+00 -9.781083537e-01 2.080962482e-01 -9.781083537e-01 2.080962482e-01 0.000000000e+00 0.000000000e+00
1.656539e+10 0.000000000e+00 0.000000000e+00 -9.167902632e-01 3.993690191e-01 -9.167902632e-01 3.993690191e-01 0.000000000e+00 0.000000000e+00
1.659741e+10 0.000000000e+00 0.000000000e+00 -8.184841034e-01 5.745291745e-01 -8.184841034e-01 5.745291745e-01 0.000000000e+00 0.000000000e+00
1.662943e+10 0.000000000e+00 0.000000000e+00 -6.871560543e-01 7.265098464e-01 -6.871560543e-01 7.265098464e-01 0.000000000e+00 0.000000000e+00
1.666145e+10 0.000000000e+00 0.000000000e+00 -5.281045698e-01 8.491793470e-01 -5.281045698e-01 8.491793470e-01 0.000000000e+00 0.000000000e+00
1.669347e+10 0.000000000e+00 0.000000000e+00 -3.477466107e-01 9.375885530e-01 -3.477466107e-01 9.375885530e-01 0.000000000e+00 0.000000000e+00
1.672550e+10 0.000000000e+00 0.000000000e+00 -1.533587516e-01 9.881705790e-01 -1.533587516e-01 9.881705790e-01 0.000000000e+00 0.000000000e+00
1.675752e+10 0.000000000e+00 0.000000000e+00 4.721639405e-02 9.988846841e-01 4.721639405e-02 9.988846841e-01 0.000000000e+00 0.000000000e+00
1.678954e+10 0.000000000e+00 0.000000000e+00 2.458865858e-01 9.692986057e-01 2.458865858e-01 9.692986057e-01 0.000000000e+00 0.000000000e+00
1.682156e+10 0.000000000e+00 0.000000000e+00 4.346364386e-01 9.006059994e-01 4.346364386e-01 9.006059994e-01 0.000000000e+00 0.000000000e+00
1.685358e+10 0.000000000e+00 0.000000000e+00 6.058508057e-01 7.955782810e-01 6.058508057e-01 7.955782810e-01 0.000000000e+00 0.000000000e+00
1.688561e+10 0.000000000e+00 0.000000000e+00 7.526220122e-01 6.584528128e-01 7.526220122e-01 6.584528128e-01 0.000000000e+00 0.000000000e+00
1.691763e+10 0.000000000e+00 0.000000000e+00 8.690285474e-01 4.947619466e-01 8.690285474e-01 4.947619466e-01 0.000000000e+00 0.000000000e+00
1.694965e+10 0.000000000e+00 0.000000000e+00 9.503739684e-01 3.111098201e-01 9.503739684e-01 3.111098201e-01 0.000000000e+00 0.000000000e+00
1.698167e+10 0.000000000e+00 0.000000000e+00 9.933763796e-01 1.149059115e-01 9.933763796e-01 1.149059115e-01 0.000000000e+00 0.000000000e+00
1.701369e+10 0.000000000e+00 0.000000000e+00 9.963008408e-01 -8.593389693e-02 9.963008408e-01 -8.593389693e-02 0.000000000e+00 0.000000000e+00
1.704572e+10 0.000000000e+00 0.000000000e+00 9.590293641e-01 -2.833066867e-01 9.590293641e-01 -2.833066867e-01 0.000000000e+00 0.000000000e+00
1.707774e+10 0.000000000e+00 0.000000000e+00 8.830656741e-01 -4.692494169e-01 8.830656741e-01 -4.692494169e-01 0.000000000e+00 0.000000000e+00
1.710976e+10 0.000000000e+00 0.000000000e+00 7.714745395e-01 -6.362601943e-01 7.714745395e-01 -6.362601943e-01 0.000000000e+00 0.000000000e+00
1.714178e+10 0.000000000e+00 0.000000000e+00 6.287581249e-01 -7.776009390e-01 6.287581249e-01 -7.776009390e-01 0.000000000e+00 0.000000000e+00
1.717380e+10 0.000000000e+00 0.000000000e+00 4.606743499e-01 -8.875692330e-01 4.606743499e-01 -8.875692330e-01 0.000000000e+00 0.000000000e+00
1.720583e+10 0.000000000e+00 0.000000000e+00 2.740045847e-01 -9.617283855e-01 2.740045847e-01 -9.617283855e-01 0.000000000e+00 0.000000000e+00
1.723785e+10 0.000000000e+00 0.000000000e+00 7.628005504e-02 -9.970864322e-01 7.628005504e-02 -9.970864322e-01 0.000000000e+00 0.000000000e+00
1.726987e+10 0.000000000e+00 0.000000000e+00 -1.245220073e-01 -9.922168461e-01 -1.245220073e-01 -9.922168461e-01 0.000000000e+00 0.000000000e+00
1.730189e+10 0.000000000e+00 0.000000000e+00 -3.203002067e-01 -9.473160917e-01 -3.203002067e-01 -9.473160917e-01 0.000000000e+00 0.000000000e+00
1.733391e+10 0.000000000e+00 0.000000000e+00 -5.031558363e-01 -8.641956980e-01 -5.031558363e-01 -8.641956980e-01 0.000000000e+00 0.000000000e+00
1.736594e+10 0.000000000e+00 0.000000000e+00 -6.657115525e-01 -7.462091723e-01 -6.657115525e-01 -7.462091723e-01 0.000000000e+00 0.000000000e+00
1.739796e+10 0.000000000e+00 0.000000000e+00 -8.014090156e-01 -5.981167025e-01 -8.014090156e-01 -5.981167025e-01 0.000000000e+00 0.000000000e+00
1.742998e+10 0.000000000e+00 0.000000000e+00 -9.047734867e-01 -4.258931059e-01 -9.047734867e-01 -4.258931059e-01 0.000000000e+00 0.000000000e+00
1.746200e+10 0.000000000e+00 0.000000000e+00 -9.716347077e-01 -2.364867749e-01 -9.716347077e-01 -2.364867749e-01 0.000000000e+00 0.000000000e+00
1.749402e+10 0.000000000e+00 0.000000000e+00 -9.992951505e-01 -3.753934210e-02 -9.992951505e-01 -3.753934210e-02 0.000000000e+00 0.000000000e+00
1.752605e+10 0.000000000e+00 0.000000000e+00 -9.866388494e-01 1.629226223e-01 -9.866388494e-01 1.629226223e-01 0.000000000e+00 0.000000000e+00
1.755807e+10 0.000000000e+00 0.000000000e+00 -9.341764253e-01 3.568114439e-01 -9.341764253e-01 3.568114439e-01 0.000000000e+00 0.000000000e+00
1.759009e+10 0.000000000e+00 0.000000000e+00 -8.440244840e-01 5.363046432e-01 -8.440244840e-01 5.363046432e-01 0.000000000e+00 0.000000000e+00
1.762211e+10 0.000000000e+00 0.000000000e+00 -7.198202221e-01 6.941605346e-01 -7.198202221e-01 6.941605346e-01 0.000000000e+00 0.000000000e+00
1.765413e+10 0.000000000e+00 0.000000000e+00 -5.665746830e-01 8.240103935e-01 -5.665746830e-01 8.240103935e-01 0.000000000e+00 0.000000000e+00
1.768616e+10 0.000000000e+00 0.000000000e+00 -3.904705857e-01 9.206154038e-01 -3.904705857e-01 9.206154038e-01 0.000000000e+00 0.000000000e+00
1.771818e+10 0.000000000e+00 0.000000000e+00 -1.986128819e-01 9.800780189e-01 -1.986128819e-01 9.800780189e-01 0.000000000e+00 0.000000000e+00
1.775020e+10 0.000000000e+00 0.000000000e+00 1.257894625e-03 9.999992089e-01 1.257894625e-03 9.999992089e-01 0.000000000e+00 0.000000000e+00
1.778222e+10 0.000000000e+00 0.000000000e+00 2.010779211e-01 9.795752496e-01 2.010779211e-01 9.795752496e-01 0.000000000e+00 0.000000000e+00
1.781424e+10 0.000000000e+00 0.000000000e+00 3.927854225e-01 9.196301495e-01 3.927854225e-01 9.196301495e-01 0.000000000e+00 0.000000000e+00
1.784627e+10 0.000000000e+00 0.000000000e+00 5.686459249e-01 8.225824044e-01 5.686459249e-01 8.225824044e-01 0.000000000e+00 0.000000000e+00
1.787829e+10 0.000000000e+00 0.000000000e+00 7.215643044e-01 6.923474233e-01 7.215643044e-01 6.923474233e-01 0.000000000e+00 0.000000000e+00
1.791031e+10 0.000000000e+00 0.000000000e+00 8.453710414e-01 5.341795600e-01 8.453710414e-01 5.341795600e-01 0.000000000e+00 0.000000000e+00
1.794233e+10 0.000000000e+00 0.000000000e+00 9.350711306e-01 3.544601256e-01 9.350711306e-01 3.544601256e-01 0.000000000e+00 0.000000000e+00
1.797435e+10 0.000000000e+00 0.000000000e+00 9.870456057e-01 1.604399332e-01 9.870456057e-01 1.604399332e-01 0.000000000e+00 0.000000000e+00
1.800638e+10 0.000000000e+00 0.000000000e+00 9.991975471e-01 -4.005323731e-02 9.991975471e-01 -4.005323731e-02 0.000000000e+00 0.000000000e+00
1.803840e+10 0.000000000e+00 0.000000000e+00 9.710366825e-01 -2.389304527e-01 9.710366825e-01 -2.389304527e-01 0.000000000e+00 0.000000000e+00
1.807042e+10 0.000000000e+00 0.000000000e+00 9.036991671e-01 -4.281679758e-01 9.036991671e-01 -4.281679758e-01 0.000000000e+00 0.000000000e+00
1.810244e+10 0.000000000e+00 0.000000000e+00 7.999017450e-01 -6.001309843e-01 7.999017450e-01 -6.001309843e-01 0.000000000e+00 0.000000000e+00
1.813446e+10 0.000000000e+00 0.000000000e+00 6.638321423e-01 -7.478815995e-01 6.638321423e-01 -7.478815995e-01 0.000000000e+00 0.000000000e+00
1.816649e+10 0.000000000e+00 0.000000000e+00 5.009801115e-01 -8.654587962e-01 5.009801115e-01 -8.654587962e-01 0.000000000e+00 0.000000000e+00
1.819851e+10 0.000000000e+00 0.000000000e+00 3.179159473e-01 -9.481189010e-01 3.179159473e-01 -9.481189010e-01 0.000000000e+00 0.000000000e+00
1.823053e+10 0.000000000e+00 0.000000000e+00 1.220254067e-01 -9.925269770e-01 1.220254067e-01 -9.925269770e-01 0.000000000e+00 0.000000000e+00
1.826255e+10 0.000000000e+00 0.000000000e+00 -7.878827098e-02 -9.968913724e-01 -7.878827098e-02 -9.968913724e-01 0.000000000e+00 0.000000000e+00
1.829457e+10 0.000000000e+00 0.000000000e+00 -2.764232217e-01 -9.610360048e-01 -2.764232217e-01 -9.610360048e-01 0.000000000e+00 0.000000000e+00
1.832660e+10 0.000000000e+00 0.000000000e+00 -4.629058274e-01 -8.864074655e-01 -4.629058274e-01 -8.864074655e-01 0.000000000e+00 0.000000000e+00
1.835862e+10 0.000000000e+00 0.000000000e+00 -6.307124137e-01 -7.760166566e-01 -6.307124137e-01 -7.760166566e-01 0.000000000e+00 0.000000000e+00
1.839064e+10 0.000000000e+00 0.000000000e+00 -7.730727934e-01 -6.343173150e-01 -7.730727934e-01 -6.343173150e-01 0.000000000e+00 0.000000000e+00
1.842266e+10 0.000000000e+00 0.000000000e+00 -8.842434113e-01 -4.670263265e-01 -8.842434113e-01 -4.670263265e-01 0.000000000e+00 0.000000000e+00
1.845468e+10 0.000000000e+00 0.000000000e+00 -9.597390685e-01 -2.808930763e-01 -9.597390685e-01 -2.808930763e-01 0.000000000e+00 0.000000000e+00
1.848671e+10 0.000000000e+00 0.000000000e+00 -9.965138793e-01 -8.342714402e-02 -9.965138793e-01 -8.342714402e-02 0.000000000e+00 0.000000000e+00
1.851873e+10 0.000000000e+00 0.000000000e+00 -9.930841571e-01 1.174046715e-01 -9.930841571e-01 1.174046715e-01 0.000000000e+00 0.000000000e+00
1.855075e+10 0.000000000e+00 0.000000000e+00 -9.495882748e-01 3.134997742e-01 -9.495882748e-01 3.134997742e-01 0.000000000e+00 0.000000000e+00
1.858277e+10 0.000000000e+00 0.000000000e+00 -8.677810815e-01 4.969466718e-01 -8.677810815e-01 4.969466718e-01 0.000000000e+00 0.000000000e+00
1.861479e+10 0.000000000e+00 0.000000000e+00 -7.509631033e-01 6.603441660e-01 -7.509631033e-01 6.603441660e-01 0.000000000e+00 0.000000000e+00
1.864682e+10 0.000000000e+00 0.000000000e+00 -6.038473827e-01 7.970999551e-01 -6.038473827e-01 7.970999551e-01 0.000000000e+00 0.000000000e+00
1.867884e+10 0.000000000e+00 0.000000000e+00 -4.323693301e-01 9.016966022e-01 -4.323693301e-01 9.016966022e-01 0.000000000e+00 0.000000000e+00
1.871086e+10 0.000000000e+00 0.000000000e+00 -2.434472585e-01 9.699141366e-01 -2.434472585e-01 9.699141366e-01 0.000000000e+00 0.000000000e+00
1.874288e+10 0.000000000e+00 0.000000000e+00 -4.470326326e-02 9.990003094e-01 -4.470326326e-02 9.990003094e-01 0.000000000e+00 0.000000000e+00
1.877490e+10 0.000000000e+00 0.000000000e+00 1.558442933e-01 9.877816339e-01 1.558442933e-01 9.877816339e-01 0.000000000e+00 0.000000000e+00
1.880693e+10 0.000000000e+00 0.000000000e+00 3.501042836e-01 9.367107294e-01 3.501042836e-01 9.367107294e-01 0.000000000e+00 0.000000000e+00
1.883895e+10 0.000000000e+00 0.000000000e+00 5.302392531e-01 8.478480609e-01 5.302392531e-01 8.478480609e-01 0.000000000e+00 0.000000000e+00
1.887097e+10 0.000000000e+00 0.000000000e+00 6.889816240e-01 7.247788089e-01 6.889816240e-01 7.247788089e-01 0.000000000e+00 0.000000000e+00
1.890299e+10 0.000000000e+00 0.000000000e+00 8.199269064e-01 5.724682245e-01 8.199269064e-01 5.724682245e-01 0.000000000e+00 0.000000000e+00
1.893502e+10 0.000000000e+00 0.000000000e+00 9.177920894e-01 3.970613059e-01 9.177920894e-01 3.970613059e-01 0.000000000e+00 0.000000000e+00
1.896704e+10 0.000000000e+00 0.000000000e+00 9.786287842e-01 2.056348771e-01 9.786287842e-01 2.056348771e-01 0.000000000e+00 0.000000000e+00
1.899906e+10 0.000000000e+00 0.000000000e+00 9.999825236e-01 5.912071854e-03 9.999825236e-01 5.912071854e-03 0.000000000e+00 0.000000000e+00
1.903108e+10 0.000000000e+00 0.000000000e+00 9.809917868e-01 -1.940492570e-01 9.809917868e-01 -1.940492570e-01 0.000000000e+00 0.000000000e+00
1.906310e+10 0.000000000e+00 0.000000000e+00 9.224227588e-01 -3.861816334e-01 9.224227588e-01 -3.861816334e-01 0.000000000e+00 0.000000000e+00
1.909513e+10 0.000000000e+00 0.000000000e+00 8.266384176e-01 -5.627334419e-01 8.266384176e-01 -5.627334419e-01 0.000000000e+00 0.000000000e+00
1.912715e+10 0.000000000e+00 0.000000000e+00 6.975031996e-01 -7.165816677e-01 6.975031996e-01 -7.165816677e-01 0.000000000e+00 0.000000000e+00
1.915917e+10 0.000000000e+00 0.000000000e+00 5.402270888e-01 -8.415192764e-01 5.402270888e-01 -8.415192764e-01 0.000000000e+00 0.000000000e+00
1.919119e+10 0.000000000e+00 0.000000000e+00 3.611554182e-01 -9.325056375e-01 3.611554182e-01 -9.325056375e-01 0.000000000e+00 0.000000000e+00
1.922321e+10 0.000000000e+00 0.000000000e+00 1.675128668e-01 -9.858698897e-01 1.675128668e-01 -9.858698897e-01 0.000000000e+00 0.000000000e+00
1.925524e+10 0.000000000e+00 0.000000000e+00 -3.288802149e-02 -9.994590427e-01 -3.288802149e-02 -9.994590427e-01 0.000000000e+00 0.000000000e+00
1.928726e+10 0.000000000e+00 0.000000000e+00 -2.319620366e-01 -9.727248396e-01 -2.319620366e-01 -9.727248396e-01 0.000000000e+00 0.000000000e+00
1.931928e+10 0.000000000e+00 0.000000000e+00 -4.216775013e-01 -9.067458767e-01 -4.216775013e-01 -9.067458767e-01 0.000000000e+00 0.000000000e+00
1.935130e+10 0.000000000e+00 0.000000000e+00 -5.943803109e-01 -8.041840871e-01 -5.943803109e-01 -8.041840871e-01 0.000000000e+00 0.000000000e+00
1.938332e+10 0.000000000e+00 0.000000000e+00 -7.431027392e-01 -6.691773449e-01 -7.431027392e-01 -6.691773449e-01 0.000000000e+00 0.000000000e+00
1.941535e+10 0.000000000e+00 0.000000000e+00 -8.618445529e-01 -5.071725216e-01 -8.618445529e-01 -5.071725216e-01 0.000000000e+00 0.000000000e+00
1.944737e+10 0.000000000e+00 0.000000000e+00 -9.458150920e-01 -3.247057310e-01 -9.458150920e-01 -3.247057310e-01 0.000000000e+00 0.000000000e+00
1.947939e+10 0.000000000e+00 0.000000000e+00 -9.916265499e-01 -1.291386289e-01 -9.916265499e-01 -1.291386289e-01 0.000000000e+00 0.000000000e+00
1.951141e+10 0.000000000e+00 0.000000000e+00 -9.974306551e-01 7.163859464e-02 -9.974306551e-01 7.163859464e-02 0.000000000e+00 0.000000000e+00
1.954343e+10 0.000000000e+00 0.000000000e+00 -9.629932399e-01 2.695255461e-01 -9.629932399e-01 2.695255461e-01 0.000000000e+00 0.000000000e+00
1.957546e+10 0.000000000e+00 0.000000000e+00 -8.897036879e-01 4.565384405e-01 -8.897036879e-01 4.565384405e-01 0.000000000e+00 0.000000000e+00
1.960748e+10 0.000000000e+00 0.000000000e+00 -7.805188796e-01 6.251322089e-01 -7.805188796e-01 6.251322089e-01 0.000000000e+00 0.000000000e+00
1.963950e+10 0.000000000e+00 0.000000000e+00 -6.398438957e-01 7.685049051e-01 -6.398438957e-01 7.685049051e-01 0.000000000e+00 0.000000000e+00
1.967152e+10 0.000000000e+00 0.000000000e+00 -4.733542939e-01 8.808721317e-01 -4.733542939e-01 8.808721317e-01 0.000000000e+00 0.000000000e+00
1.970354e+10 0.000000000e+00 0.000000000e+00 -2.877671275e-01 9.577004126e-01 -2.877671275e-01 9.577004126e-01 0.000000000e+00 0.000000000e+00
1.973557e+10 0.000000000e+00 0.000000000e+00 -9.056994412e-02 9.958900970e-01 -9.056994412e-02 9.958900970e-01 0.000000000e+00 0.000000000e+00
1.976759e+10 0.000000000e+00 0.000000000e+00 1.102813000e-01 9.939004150e-01 1.102813000e-01 9.939004150e-01 0.000000000e+00 0.000000000e+00
1.979961e+10 0.000000000e+00 0.000000000e+00 3.066832252e-01 9.518116407e-01 3.066832252e-01 9.518116407e-01 0.000000000e+00 0.000000000e+00
1.983163e+10 0.000000000e+00 0.000000000e+00 4.907119600e-01 8.713218534e-01 4.907119600e-01 8.713218534e-01 0.000000000e+00 0.000000000e+00
1.986365e+10 0.000000000e+00 0.000000000e+00 6.549428320e-01 7.556784282e-01 6.549428320e-01 7.556784282e-01 0.000000000e+00 0.000000000e+00
1.989568e+10 0.000000000e+00 0.000000000e+00 7.927499168e-01 6.095470199e-01 7.927499168e-01 6.095470199e-01 0.000000000e+00 0.000000000e+00
1.992770e+10 0.000000000e+00 0.000000000e+00 8.985733626e-01 4.388233267e-01 8.985733626e-01 4.388233267e-01 0.000000000e+00 0.000000000e+00
1.995972e+10 0.000000000e+00 0.000000000e+00 9.681437034e-01 2.503952269e-01 9.681437034e-01 2.503952269e-01 0.000000000e+00 0.000000000e+00
1.999174e+10 0.000000000e+00 0.000000000e+00 9.986541111e-01 5.186488629e-02 9.986541111e-01 5.186488629e-02 0.000000000e+00 0.000000000e+00
2.002376e+10 0.000000000e+00 0.000000000e+00 9.888736378e-01 -1.487579525e-01 9.888736378e-01 -1.487579525e-01 0.000000000e+00 0.000000000e+00
2.005579e+10 0.000000000e+00 0.000000000e+00 9.391968785e-01 -3.433791248e-01 9.391968785e-01 -3.433791248e-01 0.000000000e+00 0.000000000e+00
2.008781e+10 0.000000000e+00 0.000000000e+00 8.516280511e-01 -5.241466041e-01 8.516280511e-01 -5.241466041e-01 0.000000000e+00 0.000000000e+00
2.011983e+10 0.000000000e+00 0.000000000e+00 7.297001357e-01 -6.837672937e-01 7.297001357e-01 -6.837672937e-01 0.000000000e+00 0.000000000e+00
2.015185e+10 0.000000000e+00 0.000000000e+00 5.783323362e-01 -8.158012680e-01 5.783323362e-01 -8.158012680e-01 0.000000000e+00 0.000000000e+00
2.018387e+10 0.000000000e+00 0.000000000e+00 4.036316138e-01 -9.149215925e-01 4.036316138e-01 -9.149215925e-01 0.000000000e+00 0.000000000e+00
2.021590e+10 0.000000000e+00 0.000000000e+00 2.126463009e-01 -9.771292395e-01 2.126463009e-01 -9.771292395e-01 0.000000000e+00 0.000000000e+00
2.024792e+10 0.000000000e+00 0.000000000e+00 1.308173440e-02 -9.999144305e-01 1.308173440e-02 -9.999144305e-01 0.000000000e+00 0.000000000e+00
2.027994e+10 0.000000000e+00 0.000000000e+00 -1.870106170e-01 -9.823578926e-01 -1.870106170e-01 -9.823578926e-01 0.000000000e+00 0.000000000e+00
2.031196e+10 0.000000000e+00 0.000000000e+00 -3.795579912e-01 -9.251679476e-01 -3.795579912e-01 -9.251679476e-01 0.000000000e+00 0.000000000e+00
2.034398e+10 0.000000000e+00 0.000000000e+00 -5.567920295e-01 -8.306519343e-01 -5.567920295e-01 -8.306519343e-01 0.000000000e+00 0.000000000e+00
2.037601e+10 0.000000000e+00 0.000000000e+00 -7.115621925e-01 -7.026231182e-01 -7.115621925e-01 -7.026231182e-01 0.000000000e+00 0.000000000e+00
2.040803e+10 0.000000000e+00 0.000000000e+00 -8.376242500e-01 -5.462468451e-01 -8.376242500e-01 -5.462468451e-01 0.000000000e+00 0.000000000e+00
2.044005e+10 0.000000000e+00 0.000000000e+00 -9.298922054e-01 -3.678321442e-01 -9.298922054e-01 -3.678321442e-01 0.000000000e+00 0.000000000e+00
2.047207e+10 0.000000000e+00 0.000000000e+00 -9.846434914e-01 -1.745771888e-01 -9.846434914e-01 -1.745771888e-01 0.000000000e+00 0.000000000e+00
2.050409e+10 0.000000000e+00 0.000000000e+00 -9.996691574e-01 2.572111494e-02 -9.996691574e-01 2.572111494e-02 0.000000000e+00 0.000000000e+00
2.053612e+10 0.000000000e+00 0.000000000e+00 -9.743629902e-01 2.249816956e-01 -9.743629902e-01 2.249816956e-01 0.000000000e+00 0.000000000e+00
2.056814e+10 0.000000000e+00 0.000000000e+00 -9.097459717e-01 4.151653490e-01 -9.097459717e-01 4.151653490e-01 0.000000000e+00 0.000000000e+00
2.060016e+10 0.000000000e+00 0.000000000e+00 -8.084250872e-01 5.885990813e-01 -8.084250872e-01 5.885990813e-01 0.000000000e+00 0.000000000e+00
2.063218e+10 0.000000000e+00 0.000000000e+00 -6.744881461e-01 7.382856769e-01 -6.744881461e-01 7.382856769e-01 0.000000000e+00 0.000000000e+00
2.066420e+10 0.000000000e+00 0.000000000e+00 -5.133388586e-01 8.581860033e-01 -5.133388586e-01 8.581860033e-01 0.000000000e+00 0.000000000e+00
2.069623e+10 0.000000000e+00 0.000000000e+00 -3.314788219e-01 9.434626599e-01 -3.314788219e-01 9.434626599e-01 0.000000000e+00 0.000000000e+00
2.072825e+10 0.000000000e+00 0.000000000e+00 -1.362452121e-01 9.906751446e-01 -1.362452121e-01 9.906751446e-01 0.000000000e+00 0.000000000e+00
2.076027e+10 0.000000000e+00 0.000000000e+00 6.448523544e-02 9.979186612e-01 6.448523544e-02 9.979186612e-01 0.000000000e+00 0.000000000e+00
2.079229e+10 0.000000000e+00 0.000000000e+00 2.626140145e-01 9.649009687e-01 2.626140145e-01 9.649009687e-01 0.000000000e+00 0.000000000e+00
2.082431e+10 0.000000000e+00 0.000000000e+00 4.501475836e-01 8.929541718e-01 4.501475836e-01 8.929541718e-01 0.000000000e+00 0.000000000e+00
2.085634e+10 0.000000000e+00 0.000000000e+00 6.195198669e-01 7.849809772e-01 6.195198669e-01 7.849809772e-01 0.000000000e+00 0.000000000e+00
2.088836e+10 0.000000000e+00 0.000000000e+00 7.638975089e-01 6.453375828e-01 7.638975089e-01 6.453375828e-01 0.000000000e+00 0.000000000e+00
2.092038e+10 0.000000000e+00 0.000000000e+00 8.774555677e-01 4.796579269e-01 8.774555677e-01 4.796579269e-01 0.000000000e+00 0.000000000e+00
2.095240e+10 0.000000000e+00 0.000000000e+00 9.556125226e-01 2.946263849e-01 9.556125226e-01 2.946263849e-01 0.000000000e+00 0.000000000e+00
2.098442e+10 0.000000000e+00 0.000000000e+00 9.952151172e-01 9.770808814e-02 9.952151172e-01 9.770808814e-02 0.000000000e+00 0.000000000e+00
2.101645e+10 0.000000000e+00 0.000000000e+00 9.946655777e-01 -1.031522592e-01 9.946655777e-01 -1.031522592e-01 0.000000000e+00 0.000000000e+00
2.104847e+10 0.000000000e+00 0.000000000e+00 9.539860753e-01 -2.998509099e-01 9.539860753e-01 -2.998509099e-01 0.000000000e+00 0.000000000e+00
2.108049e+10 0.000000000e+00 0.000000000e+00 8.748178319e-01 -4.844520213e-01 8.748178319e-01 -4.844520213e-01 0.000000000e+00 0.000000000e+00
2.111251e+10 0.000000000e+00 0.000000000e+00 7.603549047e-01 -6.495078282e-01 7.603549047e-01 -6.495078282e-01 0.000000000e+00 0.000000000e+00
2.114453e+10 0.000000000e+00 0.000000000e+00 6.152153211e-01 -7.883591242e-01 6.152153211e-01 -7.883591242e-01 0.000000000e+00 0.000000000e+00
2.117656e+10 0.000000000e+00 0.000000000e+00 4.452547639e-01 -8.954039285e-01 4.452547639e-01 -8.954039285e-01 0.000000000e+00 0.000000000e+00
2.120858e+10 0.000000000e+00 0.000000000e+00 2.573303227e-01 -9.663234992e-01 2.573303227e-01 -9.663234992e-01 0.000000000e+00 0.000000000e+00
2.124060e+10 0.000000000e+00 0.000000000e+00 5.902384301e-02 -9.982565732e-01 5.902384301e-02 -9.982565732e-01 0.000000000e+00 0.000000000e+00
2.127262e+10 0.000000000e+00 0.000000000e+00 -1.416639643e-01 -9.899148050e-01 -1.416639643e-01 -9.899148050e-01 0.000000000e+00 0.000000000e+00
2.130464e+10 0.000000000e+00 0.000000000e+00 -3.366363134e-01 -9.416347448e-01 -3.366363134e-01 -9.416347448e-01 0.000000000e+00 0.000000000e+00
2.133667e+10 0.000000000e+00 0.000000000e+00 -5.180270094e-01 -8.553642602e-01 -5.180270094e-01 -8.553642602e-01 0.000000000e+00 0.000000000e+00
2.136869e+10 0.000000000e+00 0.000000000e+00 -6.785178119e-01 -7.345839496e-01 -6.785178119e-01 -7.345839496e-01 0.000000000e+00 0.000000000e+00
2.140071e+10 0.000000000e+00 0.000000000e+00 -8.116336904e-01 -5.841667165e-01 -8.116336904e-01 -5.841667165e-01 0.000000000e+00 0.000000000e+00
2.143273e+10 0.000000000e+00 0.000000000e+00 -9.120040606e-01 -4.101811715e-01 -9.120040606e-01 -4.101811715e-01 0.000000000e+00 0.000000000e+00
2.146475e+10 0.000000000e+00 0.000000000e+00 -9.755794619e-01 -2.196467928e-01 -9.755794619e-01 -2.196467928e-01 0.000000000e+00 0.000000000e+00
2.149678e+10 0.000000000e+00 0.000000000e+00 -9.997949331e-01 -2.025072443e-02 -9.997949331e-01 -2.025072443e-02 0.000000000e+00 0.000000000e+00
2.152880e+10 0.000000000e+00 0.000000000e+00 -9.836734966e-01 1.799623630e-01 -9.836734966e-01 1.799623630e-01 0.000000000e+00 0.000000000e+00
2.156082e+10 0.000000000e+00 0.000000000e+00 -9.278655747e-01 3.729148364e-01 -9.278655747e-01 3.729148364e-01 0.000000000e+00 0.000000000e+00
2.159284e+10 0.000000000e+00 0.000000000e+00 -8.346227482e-01 5.508219931e-01 -8.346227482e-01 5.508219931e-01 0.000000000e+00 0.000000000e+00
2.162486e+10 0.000000000e+00 0.000000000e+00 -7.077069158e-01 7.065061368e-01 -7.077069158e-01 7.065061368e-01 0.000000000e+00 0.000000000e+00
2.165689e+10 0.000000000e+00 0.000000000e+00 -5.522385197e-01 8.336861624e-01 -5.522385197e-01 8.336861624e-01 0.000000000e+00 0.000000000e+00
2.168891e+10 0.000000000e+00 0.000000000e+00 -3.744899605e-01 9.272309688e-01 -3.744899605e-01 9.272309688e-01 0.000000000e+00 0.000000000e+00
2.172093e+10 0.000000000e+00 0.000000000e+00 -1.816325360e-01 9.833664738e-01 -1.816325360e-01 9.833664738e-01 0.000000000e+00 0.000000000e+00
2.175295e+10 0.000000000e+00 0.000000000e+00 1.855288610e-02 9.998278804e-01 1.855288610e-02 9.998278804e-01 0.000000000e+00 0.000000000e+00
2.178497e+10 0.000000000e+00 0.000000000e+00 2.179897886e-01 9.759510500e-01 2.179897886e-01 9.759510500e-01 0.000000000e+00 0.000000000e+00
2.181700e+10 0.000000000e+00 0.000000000e+00 4.086318536e-01 9.126992978e-01 4.086318536e-01 9.126992978e-01 0.000000000e+00 0.000000000e+00
2.184902e+10 0.000000000e+00 0.000000000e+00 5.827875925e-01 8.126245271e-01 5.827875925e-01 8.126245271e-01 0.000000000e+00 0.000000000e+00
2.188104e+10 0.000000000e+00 0.000000000e+00 7.334306604e-01 6.797642727e-01 7.334306604e-01 6.797642727e-01 0.000000000e+00 0.000000000e+00
2.191306e+10 0.000000000e+00 0.000000000e+00 8.544833354e-01 5.194788056e-01 8.544833354e-01 5.194788056e-01 0.000000000e+00 0.000000000e+00
2.194509e+10 0.000000000e+00 0.000000000e+00 9.410617256e-01 3.382348720e-01 9.410617256e-01 3.382348720e-01 0.000000000e+00 0.000000000e+00
2.197711e+10 0.000000000e+00 0.000000000e+00 9.896728100e-01 1.433447912e-01 9.896728100e-01 1.433447912e-01 0.000000000e+00 0.000000000e+00
2.200913e+10 0.000000000e+00 0.000000000e+00 9.983553656e-01 -5.732856115e-02 9.983553656e-01 -5.732856115e-02 0.000000000e+00 0.000000000e+00
2.204115e+10 0.000000000e+00 0.000000000e+00 9.667590932e-01 -2.556889823e-01 9.667590932e-01 -2.556889823e-01 0.000000000e+00 0.000000000e+00
2.207317e+10 0.000000000e+00 0.000000000e+00 8.961587501e-01 -4.437335852e-01 8.961587501e-01 -4.437335852e-01 0.000000000e+00 0.000000000e+00
2.210520e+10 0.000000000e+00 0.000000000e+00 7.894027199e-01 -6.138756762e-01 7.894027199e-01 -6.138756762e-01 0.000000000e+00 0.000000000e+00
2.213722e+10 0.000000000e+00 0.000000000e+00 6.507980940e-01 -7.592508418e-01 6.507980940e-01 -7.592508418e-01 0.000000000e+00 0.000000000e+00
2.216924e+10 0.000000000e+00 0.000000000e+00 4.859369012e-01 -8.739938948e-01 4.859369012e-01 -8.739938948e-01 0.000000000e+00 0.000000000e+00
2.220126e+10 0.000000000e+00 0.000000000e+00 3.014704960e-01 -9.534755057e-01 3.014704960e-01 -9.534755057e-01 0.000000000e+00 0.000000000e+00
2.223328e+10 0.000000000e+00 0.000000000e+00 1.048412091e-01 -9.944889747e-01 1.048412091e-01 -9.944889747e-01 0.000000000e+00 0.000000000e+00
2.226531e+10 0.000000000e+00 0.000000000e+00 -9.601791537e-02 -9.953796059e-01 -9.601791537e-02 -9.953796059e-01 0.000000000e+00 0.000000000e+00
2.229733e+10 0.000000000e+00 0.000000000e+00 -2.930031797e-01 -9.561114667e-01 -2.930031797e-01 -9.561114667e-01 0.000000000e+00 0.000000000e+00
2.232935e+10 0.000000000e+00 0.000000000e+00 -4.781671776e-01 -8.782688371e-01 -4.781671776e-01 -8.782688371e-01 0.000000000e+00 0.000000000e+00
2.236137e+10 0.000000000e+00 0.000000000e+00 -6.440394342e-01 -7.649922923e-01 -6.440394342e-01 -7.649922923e-01 0.000000000e+00 0.000000000e+00
2.239339e+10 0.000000000e+00 0.000000000e+00 -7.839278031e-01 -6.208519948e-01 -7.839278031e-01 -6.208519948e-01 0.000000000e+00 0.000000000e+00
2.242542e+10 0.000000000e+00 0.000000000e+00 -8.921884629e-01 -4.516633112e-01 -8.921884629e-01 -4.516633112e-01 0.000000000e+00 0.000000000e+00
2.245744e+10 0.000000000e+00 0.000000000e+00 -9.644536175e-01 -2.642521895e-01 -9.644536175e-01 -2.642521895e-01 0.000000000e+00 0.000000000e+00
2.248946e+10 0.000000000e+00 0.000000000e+00 -9.978077163e-01 -6.617976540e-02 -9.978077163e-01 -6.617976540e-02 0.000000000e+00 0.000000000e+00
2.252148e+10 0.000000000e+00 0.000000000e+00 -9.909050820e-01 1.345626934e-01 -9.909050820e-01 1.345626934e-01 0.000000000e+00 0.000000000e+00
2.255350e+10 0.000000000e+00 0.000000000e+00 -9.440242028e-01 3.298761959e-01 -9.440242028e-01 3.298761959e-01 0.000000000e+00 0.000000000e+00
2.258553e+10 0.000000000e+00 0.000000000e+00 -8.590564961e-01 5.118807836e-01 -8.590564961e-01 5.118807836e-01 0.000000000e+00 0.000000000e+00
2.261755e+10 0.000000000e+00 0.000000000e+00 -7.394299995e-01 6.732334483e-01 -7.394299995e-01 6.732334483e-01 0.000000000e+00 0.000000000e+00
2.264957e+10 0.000000000e+00 0.000000000e+00 -5.899710656e-01 8.074243876e-01 -5.899710656e-01 8.074243876e-01 0.000000000e+00 0.000000000e+00
2.268159e+10 0.000000000e+00 0.000000000e+00 -4.167096422e-01 9.090396438e-01 -4.167096422e-01 9.090396438e-01 0.000000000e+00 0.000000000e+00
2.271361e+10 0.000000000e+00 0.000000000e+00 -2.266359929e-01 9.739795310e-01 -2.266359929e-01 9.739795310e-01 0.000000000e+00 0.000000000e+00
2.274564e+10 0.000000000e+00 0.000000000e+00 -2.741867340e-02 9.996240375e-01 -2.741867340e-02 9.996240375e-01 0.000000000e+00 0.000000000e+00
2.277766e+10 0.000000000e+00 0.000000000e+00 1.729048575e-01 9.849385312e-01 1.729048575e-01 9.849385312e-01 0.000000000e+00 0.000000000e+00
2.280968e+10 0.000000000e+00 0.000000000e+00 3.662525105e-01 9.305155015e-01 3.662525105e-01 9.305155015e-01 0.000000000e+00 0.000000000e+00
2.284170e+10 0.000000000e+00 0.000000000e+00 5.448236397e-01 8.385506554e-01 5.448236397e-01 8.385506554e-01 0.000000000e+00 0.000000000e+00
2.287372e+10 0.000000000e+00 0.000000000e+00 7.014137605e-01 7.127543311e-01 7.014137605e-01 7.127543311e-01 0.000000000e+00 0.000000000e+00
2.290575e+10 0.000000000e+00 0.000000000e+00 8.297052161e-01 5.582018044e-01 8.297052161e-01 5.582018044e-01 0.000000000e+00 0.000000000e+00
2.293777e+10 0.000000000e+00 0.000000000e+00 9.245220645e-01 3.811285247e-01 9.245220645e-01 3.811285247e-01 0.000000000e+00 0.000000000e+00
2.296979e+10 0.000000000e+00 0.000000000e+00 9.820389027e-01 1.886785457e-01 9.820389027e-01 1.886785457e-01 0.000000000e+00 0.000000000e+00
2.300181e+10 0.000000000e+00 0.000000000e+00 9.999352035e-01 -1.138370347e-02 9.999352035e-01 -1.138370347e-02 0.000000000e+00 0.000000000e+00
2.303383e+10 0.000000000e+00 0.000000000e+00 9.774889375e-01 -2.109866750e-01 9.774889375e-01 -2.109866750e-01 0.000000000e+00 0.000000000e+00
2.306586e+10 0.000000000e+00 0.000000000e+00 9.156057033e-01 -4.020773510e-01 9.156057033e-01 -4.020773510e-01 0.000000000e+00 0.000000000e+00
2.309788e+10 0.000000000e+00 0.000000000e+00 8.167821911e-01 -5.769461433e-01 8.167821911e-01 -5.769461433e-01 0.000000000e+00 0.000000000e+00
2.312990e+10 0.000000000e+00 0.000000000e+00 6.850054535e-01 -7.285379391e-01 6.850054535e-01 -7.285379391e-01 0.000000000e+00 0.000000000e+00
2.316192e+10 0.000000000e+00 0.000000000e+00 5.255920468e-01 -8.507367397e-01 5.255920468e-01 -8.507367397e-01 0.000000000e+00 0.000000000e+00
2.319394e+10 0.000000000e+00 0.000000000e+00 3.449735338e-01 -9.386124125e-01 3.449735338e-01 -9.386124125e-01 0.000000000e+00 0.000000000e+00
2.322597e+10 0.000000000e+00 0.000000000e+00 1.504370011e-01 -9.886195976e-01 1.504370011e-01 -9.886195976e-01 0.000000000e+00 0.000000000e+00
2.325799e+10 0.000000000e+00 0.000000000e+00 -5.016893967e-02 -9.987407459e-01 -5.016893967e-02 -9.987407459e-01 0.000000000e+00 0.000000000e+00
2.329001e+10 0.000000000e+00 0.000000000e+00 -2.487508055e-01 -9.685675179e-01 -2.487508055e-01 -9.685675179e-01 0.000000000e+00 0.000000000e+00
2.332203e+10 0.000000000e+00 0.000000000e+00 -4.372967750e-01 -8.993172580e-01 -4.372967750e-01 -8.993172580e-01 0.000000000e+00 0.000000000e+00
2.335405e+10 0.000000000e+00 0.000000000e+00 -6.081999269e-01 -7.937838805e-01 -6.081999269e-01 -7.937838805e-01 0.000000000e+00 0.000000000e+00
2.338608e+10 0.000000000e+00 0.000000000e+00 -7.545651426e-01 -6.562251485e-01 -7.545651426e-01 -6.562251485e-01 0.000000000e+00 0.000000000e+00
2.341810e+10 0.000000000e+00 0.000000000e+00 -8.704872910e-01 -4.921908941e-01 -8.704872910e-01 -4.921908941e-01 0.000000000e+00 0.000000000e+00
2.345012e+10 0.000000000e+00 0.000000000e+00 -9.512894720e-01 -3.082991089e-01 -9.512894720e-01 -3.082991089e-01 0.000000000e+00 0.000000000e+00
2.348214e+10 0.000000000e+00 0.000000000e+00 -9.937117069e-01 -1.119689403e-01 -9.937117069e-01 -1.119689403e-01 0.000000000e+00 0.000000000e+00
2.351416e+10 0.000000000e+00 0.000000000e+00 -9.960424630e-01 8.887863542e-02 -9.960424630e-01 8.887863542e-02 0.000000000e+00 0.000000000e+00
2.354619e+10 0.000000000e+00 0.000000000e+00 -9.581877056e-01 2.861403865e-01 -9.581877056e-01 2.861403865e-01 0.000000000e+00 0.000000000e+00
2.357821e+10 0.000000000e+00 0.000000000e+00 -8.816746917e-01 4.718577519e-01 -8.816746917e-01 4.718577519e-01 0.000000000e+00 0.000000000e+00
2.361023e+10 0.000000000e+00 0.000000000e+00 -7.695903526e-01 6.385379309e-01 -7.695903526e-01 6.385379309e-01 0.000000000e+00 0.000000000e+00
2.364225e+10 0.000000000e+00 0.000000000e+00 -6.264567514e-01 7.794561813e-01 -6.264567514e-01 7.794561813e-01 0.000000000e+00 0.000000000e+00
2.367427e+10 0.000000000e+00 0.000000000e+00 -4.580486391e-01 8.889271310e-01 -4.580486391e-01 8.889271310e-01 0.000000000e+00 0.000000000e+00
2.370630e+10 0.000000000e+00 0.000000000e+00 -2.711604715e-01 9.625341546e-01 -2.711604715e-01 9.625341546e-01 0.000000000e+00 0.000000000e+00
2.373832e+10 0.000000000e+00 0.000000000e+00 -7.333228557e-02 9.973075633e-01 -7.333228557e-02 9.973075633e-01 0.000000000e+00 0.000000000e+00
2.377034e+10 0.000000000e+00 0.000000000e+00 1.274545047e-01 9.918444179e-01 1.274545047e-01 9.918444179e-01 0.000000000e+00 0.000000000e+00
2.380236e+10 0.000000000e+00 0.000000000e+00 3.230991199e-01 9.463651297e-01 3.230991199e-01 9.463651297e-01 0.000000000e+00 0.000000000e+00
2.383438e+10 0.000000000e+00 0.000000000e+00 5.057082426e-01 8.627045690e-01 5.057082426e-01 8.627045690e-01 0.000000000e+00 0.000000000e+00
2.386641e+10 0.000000000e+00 0.000000000e+00 6.679144747e-01 7.442380362e-01 6.679144747e-01 7.442380362e-01 0.000000000e+00 0.000000000e+00
2.389843e+10 0.000000000e+00 0.000000000e+00 8.031735763e-01 5.957450850e-01 8.031735763e-01 5.957450850e-01 0.000000000e+00 0.000000000e+00
2.393045e+10 0.000000000e+00 0.000000000e+00 9.060284945e-01 4.232166905e-01 9.060284945e-01 4.232166905e-01 0.000000000e+00 0.000000000e+00
2.396247e+10 0.000000000e+00 0.000000000e+00 9.723295290e-01 2.336135420e-01 9.723295290e-01 2.336135420e-01 0.000000000e+00 0.000000000e+00
2.399449e+10 0.000000000e+00 0.000000000e+00 9.994017526e-01 3.458521281e-02 9.994017526e-01 3.458521281e-02 0.000000000e+00 0.000000000e+00
2.402652e+10 0.000000000e+00 0.000000000e+00 9.861529314e-01 -1.658384631e-01 9.861529314e-01 -1.658384631e-01 0.000000000e+00 0.000000000e+00
2.405854e+10 0.000000000e+00 0.000000000e+00 9.331175917e-01 -3.595713561e-01 9.331175917e-01 -3.595713561e-01 0.000000000e+00 0.000000000e+00
2.409056e+10 0.000000000e+00 0.000000000e+00 8.424354537e-01 -5.387972777e-01 8.424354537e-01 -5.387972777e-01 0.000000000e+00 0.000000000e+00
2.412258e+10 0.000000000e+00 0.000000000e+00 7.177651047e-01 -6.962853255e-01 7.177651047e-01 -6.962853255e-01 0.000000000e+00 0.000000000e+00
2.415460e+10 0.000000000e+00 0.000000000e+00 5.641363926e-01 -8.256816157e-01 5.641363926e-01 -8.256816157e-01 0.000000000e+00 0.000000000e+00
2.418663e+10 0.000000000e+00 0.000000000e+00 3.877474956e-01 -9.217656316e-01 3.877474956e-01 -9.217656316e-01 0.000000000e+00 0.000000000e+00
2.421865e+10 0.000000000e+00 0.000000000e+00 1.957148556e-01 -9.806608462e-01 1.957148556e-01 -9.806608462e-01 0.000000000e+00 0.000000000e+00
2.425067e+10 0.000000000e+00 0.000000000e+00 -4.213935633e-03 -9.999911213e-01 -4.213935633e-03 -9.999911213e-01 0.000000000e+00 0.000000000e+00
2.428269e+10 0.000000000e+00 0.000000000e+00 -2.039727149e-01 -9.789765736e-01 -2.039727149e-01 -9.789765736e-01 0.000000000e+00 0.000000000e+00
2.431471e+10 0.000000000e+00 0.000000000e+00 -3.955021780e-01 -9.184650386e-01 -3.955021780e-01 -9.184650386e-01 0.000000000e+00 0.000000000e+00
2.434674e+10 0.000000000e+00 0.000000000e+00 -5.710750342e-01 -8.208978654e-01 -5.710750342e-01 -8.208978654e-01 0.000000000e+00 0.000000000e+00
2.437876e+10 0.000000000e+00 0.000000000e+00 -7.236077646e-01 -6.902114190e-01 -7.236077646e-01 -6.902114190e-01 0.000000000e+00 0.000000000e+00
2.441078e+10 0.000000000e+00 0.000000000e+00 -8.469464088e-01 -5.316782680e-01 -8.469464088e-01 -5.316782680e-01 0.000000000e+00 0.000000000e+00
2.444280e+10 0.000000000e+00 0.000000000e+00 -9.361148466e-01 -3.516944610e-01 -9.361148466e-01 -3.516944610e-01 0.000000000e+00 0.000000000e+00
2.447482e+10 0.000000000e+00 0.000000000e+00 -9.875155615e-01 -1.575214772e-01 -9.875155615e-01 -1.575214772e-01 0.000000000e+00 0.000000000e+00
2.450685e+10 0.000000000e+00 0.000000000e+00 -9.990747822e-01 4.300673906e-02 -9.990747822e-01 4.300673906e-02 0.000000000e+00 0.000000000e+00
2.453887e+10 0.000000000e+00 0.000000000e+00 -9.703261498e-01 2.417998407e-01 -9.703261498e-01 2.417998407e-01 0.000000000e+00 0.000000000e+00
2.457089e+10 0.000000000e+00 0.000000000e+00 -9.024295332e-01 4.308374839e-01 -9.024295332e-01 4.308374839e-01 0.000000000e+00 0.000000000e+00
2.460291e+10 0.000000000e+00 0.000000000e+00 -7.981242337e-01 6.024929109e-01 -7.981242337e-01 6.024929109e-01 0.000000000e+00 0.000000000e+00
2.463493e+10 0.000000000e+00 0.000000000e+00 -6.616184674e-01 7.498406522e-01 -6.616184674e-01 7.498406522e-01 0.000000000e+00 0.000000000e+00
2.466696e+10 0.000000000e+00 0.000000000e+00 -4.984195841e-01 8.669359366e-01 -4.984195841e-01 8.669359366e-01 0.000000000e+00 0.000000000e+00
2.469898e+10 0.000000000e+00 0.000000000e+00 -3.151118725e-01 9.490545336e-01 -3.151118725e-01 9.490545336e-01 0.000000000e+00 0.000000000e+00
2.473100e+10 0.000000000e+00 0.000000000e+00 -1.190909154e-01 9.928833536e-01 -1.190909154e-01 9.928833536e-01 0.000000000e+00 0.000000000e+00
2.476302e+10 0.000000000e+00 0.000000000e+00 8.173478633e-02 9.966541149e-01 8.173478633e-02 9.966541149e-01 0.000000000e+00 0.000000000e+00
2.479505e+10 0.000000000e+00 0.000000000e+00 2.792628833e-01 9.602146854e-01 2.792628833e-01 9.602146854e-01 0.000000000e+00 0.000000000e+00
2.482707e+10 0.000000000e+00 0.000000000e+00 4.655240686e-01 8.850352205e-01 4.655240686e-01 8.850352205e-01 0.000000000e+00 0.000000000e+00
2.485909e+10 0.000000000e+00 0.000000000e+00 6.330036011e-01 7.741488493e-01 6.330036011e-01 7.741488493e-01 0.000000000e+00 0.000000000e+00
2.489111e+10 0.000000000e+00 0.000000000e+00 7.749444887e-01 6.320293027e-01 7.749444887e-01 6.320293027e-01 0.000000000e+00 0.000000000e+00
2.492313e+10 0.000000000e+00 0.000000000e+00 8.856201005e-01 4.644104193e-01 8.856201005e-01 4.644104193e-01 0.000000000e+00 0.000000000e+00
2.495516e+10 0.000000000e+00 0.000000000e+00 9.605652090e-01 2.780548135e-01 9.605652090e-01 2.780548135e-01 0.000000000e+00 0.000000000e+00
2.498718e+10 0.000000000e+00 0.000000000e+00 9.967561401e-01 8.048103582e-02 9.967561401e-01 8.048103582e-02 0.000000000e+00 0.000000000e+00
2.501920e+10 0.000000000e+00 0.000000000e+00 9.927327643e-01 -1.203397638e-01 9.927327643e-01 -1.203397638e-01 0.000000000e+00 0.000000000e+00
2.505122e+10 0.000000000e+00 0.000000000e+00 9.486574052e-01 -3.163054338e-01 9.486574052e-01 -3.163054338e-01 0.000000000e+00 0.000000000e+00
2.508324e+10 0.000000000e+00 0.000000000e+00 8.663082914e-01 -4.995097039e-01 8.663082914e-01 -4.995097039e-01 0.000000000e+00 0.000000000e+00
2.511527e+10 0.000000000e+00 0.000000000e+00 7.490078126e-01 -6.625611644e-01 7.490078126e-01 -6.625611644e-01 0.000000000e+00 0.000000000e+00
2.514729e+10 0.000000000e+00 0.000000000e+00 6.014884780e-01 -7.988814748e-01 6.014884780e-01 -7.988814748e-01 0.000000000e+00 0.000000000e+00
2.517931e+10 0.000000000e+00 0.000000000e+00 4.297019818e-01 -9.029707674e-01 4.297019818e-01 -9.029707674e-01 0.000000000e+00 0.000000000e+00
2.521133e+10 0.000000000e+00 0.000000000e+00 2.405790813e-01 -9.706295409e-01 2.405790813e-01 -9.706295409e-01 0.000000000e+00 0.000000000e+00
2.524335e+10 0.000000000e+00 0.000000000e+00 4.174997424e-02 -9.991280897e-01 4.174997424e-02 -9.991280897e-01 0.000000000e+00 0.000000000e+00
2.527538e+10 0.000000000e+00 0.000000000e+00 -1.587635431e-01 -9.873166348e-01 -1.587635431e-01 -9.873166348e-01 0.000000000e+00 0.000000000e+00
2.530740e+10 0.000000000e+00 0.000000000e+00 -3.528717166e-01 -9.356717115e-01 -3.528717166e-01 -9.356717115e-01 0.000000000e+00 0.000000000e+00
2.533942e+10 0.000000000e+00 0.000000000e+00 -5.327432167e-01 -8.462769435e-01 -5.327432167e-01 -8.462769435e-01 0.000000000e+00 0.000000000e+00
2.537144e+10 0.000000000e+00 0.000000000e+00 -6.911210953e-01 -7.227389789e-01 -6.911210953e-01 -7.227389789e-01 0.000000000e+00 0.000000000e+00
2.540346e+10 0.000000000e+00 0.000000000e+00 -8.216155681e-01 -5.700419794e-01 -8.216155681e-01 -5.700419794e-01 0.000000000e+00 0.000000000e+00
2.543549e+10 0.000000000e+00 0.000000000e+00 -9.189618120e-01 -3.943465329e-01 -9.189618120e-01 -3.943465329e-01 0.000000000e+00 0.000000000e+00
2.546751e+10 0.000000000e+00 0.000000000e+00 -9.792323752e-01 -2.027411042e-01 -9.792323752e-01 -2.027411042e-01 0.000000000e+00 0.000000000e+00
2.549953e+10 0.000000000e+00 0.000000000e+00 -9.999956309e-01 -2.956048842e-03 -9.999956309e-01 -2.956048842e-03 0.000000000e+00 0.000000000e+00
2.553155e+10 0.000000000e+00 0.000000000e+00 -9.804138817e-01 1.969482688e-01 -9.804138817e-01 1.969482688e-01 0.000000000e+00 0.000000000e+00
2.556357e+10 0.000000000e+00 0.000000000e+00 -9.212771569e-01 3.889066729e-01 -9.212771569e-01 3.889066729e-01 0.000000000e+00 0.000000000e+00
2.559560e+10 0.000000000e+00 0.000000000e+00 -8.249713383e-01 5.651745668e-01 -8.249713383e-01 5.651745668e-01 0.000000000e+00 0.000000000e+00
2.562762e+10 0.000000000e+00 0.000000000e+00 -6.953819017e-01 7.186403904e-01 -6.953819017e-01 7.186403904e-01 0.000000000e+00 0.000000000e+00
2.565964e+10 0.000000000e+00 0.000000000e+00 -5.377371564e-01 8.431125374e-01 -5.377371564e-01 8.431125374e-01 0.000000000e+00 0.000000000e+00
2.569166e+10 0.000000000e+00 0.000000000e+00 -3.583973080e-01 9.335691563e-01 -3.583973080e-01 9.335691563e-01 0.000000000e+00 0.000000000e+00
2.572368e+10 0.000000000e+00 0.000000000e+00 -1.645978554e-01 9.863607585e-01 -1.645978554e-01 9.863607585e-01 0.000000000e+00 0.000000000e+00
2.575571e+10 0.000000000e+00 0.000000000e+00 3.584232754e-02 9.993574573e-01 3.584232754e-02 9.993574573e-01 0.000000000e+00 0.000000000e+00
2.578773e+10 0.000000000e+00 0.000000000e+00 2.348364453e-01 9.720348985e-01 2.348364453e-01 9.720348985e-01 0.000000000e+00 0.000000000e+00
2.581975e+10 0.000000000e+00 0.000000000e+00 4.243560441e-01 9.054954157e-01 4.243560441e-01 9.054954157e-01 0.000000000e+00 0.000000000e+00
2.585177e+10 0.000000000e+00 0.000000000e+00 5.967549214e-01 8.024235563e-01 5.967549214e-01 8.024235563e-01 0.000000000e+00 0.000000000e+00
2.588379e+10 0.000000000e+00 0.000000000e+00 7.450776134e-01 6.669777732e-01 7.450776134e-01 6.669777732e-01 0.000000000e+00 0.000000000e+00
2.591582e+10 0.000000000e+00 0.000000000e+00 8.633400141e-01 5.046226511e-01 8.633400141e-01 5.046226511e-01 0.000000000e+00 0.000000000e+00
2.594784e+10 0.000000000e+00 0.000000000e+00 9.467708056e-01 3.219084367e-01 9.467708056e-01 3.219084367e-01 0.000000000e+00 0.000000000e+00
2.597986e+10 0.000000000e+00 0.000000000e+00 9.920039575e-01 1.262067681e-01 9.920039575e-01 1.262067681e-01 0.000000000e+00 0.000000000e+00
2.601188e+10 0.000000000e+00 0.000000000e+00 9.972145300e-01 -7.458673537e-02 9.972145300e-01 -7.458673537e-02 0.000000000e+00 0.000000000e+00
2.604390e+10 0.000000000e+00 0.000000000e+00 9.621923018e-01 -2.723710235e-01 9.621923018e-01 -2.723710235e-01 0.000000000e+00 0.000000000e+00
2.607593e+10 0.000000000e+00 0.000000000e+00 8.883502508e-01 -4.591664534e-01 8.883502508e-01 -4.591664534e-01 0.000000000e+00 0.000000000e+00
2.610795e+10 0.000000000e+00 0.000000000e+00 7.786675481e-01 -6.274367295e-01 7.786675481e-01 -6.274367295e-01 0.000000000e+00 0.000000000e+00
2.613997e+10 0.000000000e+00 0.000000000e+00 6.375693621e-01 -7.703929572e-01 6.375693621e-01 -7.703929572e-01 0.000000000e+00 0.000000000e+00
2.617199e+10 0.000000000e+00 0.000000000e+00 4.707483248e-01 -8.822675415e-01 4.707483248e-01 -8.822675415e-01 0.000000000e+00 0.000000000e+00
2.620401e+10 0.000000000e+00 0.000000000e+00 2.849348610e-01 -9.585468820e-01 2.849348610e-01 -9.585468820e-01 0.000000000e+00 0.000000000e+00
2.623604e+10 0.000000000e+00 0.000000000e+00 8.762564864e-02 -9.961534750e-01 8.762564864e-02 -9.961534750e-01 0.000000000e+00 0.000000000e+00
2.626806e+10 0.000000000e+00 0.000000000e+00 -1.132188364e-01 -9.935700756e-01 -1.132188364e-01 -9.935700756e-01 0.000000000e+00 0.000000000e+00
2.630008e+10 0.000000000e+00 0.000000000e+00 -3.094954869e-01 -9.509009115e-01 -3.094954869e-01 -9.509009115e-01 0.000000000e+00 0.000000000e+00
2.633210e+10 0.000000000e+00 0.000000000e+00 -4.932854860e-01 -8.698674780e-01 -4.932854860e-01 -8.698674780e-01 0.000000000e+00 0.000000000e+00
2.636412e+10 0.000000000e+00 0.000000000e+00 -6.571737928e-01 -7.537390835e-01 -6.571737928e-01 -7.537390835e-01 0.000000000e+00 0.000000000e+00
2.639615e+10 0.000000000e+00 0.000000000e+00 -7.945483039e-01 -6.072009492e-01 -7.945483039e-01 -6.072009492e-01 0.000000000e+00 0.000000000e+00
2.642817e+10 0.000000000e+00 0.000000000e+00 -8.998666198e-01 -4.361651827e-01 -8.998666198e-01 -4.361651827e-01 0.000000000e+00 0.000000000e+00
2.646019e+10 0.000000000e+00 0.000000000e+00 -9.688796539e-01 -2.475322528e-01 -9.688796539e-01 -2.475322528e-01 0.000000000e+00 0.000000000e+00
2.649221e+10 0.000000000e+00 0.000000000e+00 -9.988030630e-01 -4.891258936e-02 -9.988030630e-01 -4.891258936e-02 0.000000000e+00 0.000000000e+00
2.652423e+10 0.000000000e+00 0.000000000e+00 -9.884295815e-01 1.516804614e-01 -9.884295815e-01 1.516804614e-01 0.000000000e+00 0.000000000e+00
2.655626e+10 0.000000000e+00 0.000000000e+00 -9.381777296e-01 3.461539364e-01 -9.381777296e-01 3.461539364e-01 0.000000000e+00 0.000000000e+00
2.658828e+10 0.000000000e+00 0.000000000e+00 -8.500749273e-01 5.266617681e-01 -8.500749273e-01 5.266617681e-01 0.000000000e+00 0.000000000e+00
2.662030e+10 0.000000000e+00 0.000000000e+00 -7.276756980e-01 6.859213355e-01 -7.276756980e-01 6.859213355e-01 0.000000000e+00 0.000000000e+00
2.665232e+10 0.000000000e+00 0.000000000e+00 -5.759182610e-01 8.175072823e-01 -5.759182610e-01 8.175072823e-01 0.000000000e+00 0.000000000e+00
2.668434e+10 0.000000000e+00 0.000000000e+00 -4.009252974e-01 9.161107498e-01 -4.009252974e-01 9.161107498e-01 0.000000000e+00 0.000000000e+00
2.671637e+10 0.000000000e+00 0.000000000e+00 -2.097569300e-01 9.777535632e-01 -2.097569300e-01 9.777535632e-01 0.000000000e+00 0.000000000e+00
2.674839e+10 0.000000000e+00 0.000000000e+00 -1.012588135e-02 9.999487319e-01 -1.012588135e-02 9.999487319e-01 0.000000000e+00 0.000000000e+00
2.678041e+10 0.000000000e+00 0.000000000e+00 1.899136978e-01 9.818007880e-01 1.899136978e-01 9.818007880e-01 0.000000000e+00 0.000000000e+00
2.681243e+10 0.000000000e+00 0.000000000e+00 3.822911745e-01 9.240419135e-01 3.822911745e-01 9.240419135e-01 0.000000000e+00 0.000000000e+00
2.684445e+10 0.000000000e+00 0.000000000e+00 5.592450445e-01 8.290024006e-01 5.592450445e-01 8.290024006e-01 0.000000000e+00 0.000000000e+00
2.687648e+10 0.000000000e+00 0.000000000e+00 7.136360719e-01 7.005166357e-01 7.136360719e-01 7.005166357e-01 0.000000000e+00 0.000000000e+00
2.690850e+10 0.000000000e+00 0.000000000e+00 8.392353227e-01 5.437684003e-01 8.392353227e-01 5.437684003e-01 0.000000000e+00 0.000000000e+00
2.694052e+10 0.000000000e+00 0.000000000e+00 9.309754724e-01 3.650817303e-01 9.309754724e-01 3.650817303e-01 0.000000000e+00 0.000000000e+00
2.697254e+10 0.000000000e+00 0.000000000e+00 9.851552481e-01 1.716657718e-01 9.851552481e-01 1.716657718e-01 0.000000000e+00 0.000000000e+00
2.700456e+10 0.000000000e+00 0.000000000e+00 9.995887568e-01 -2.867607341e-02 9.995887568e-01 -2.867607341e-02 0.000000000e+00 0.000000000e+00
2.703659e+10 0.000000000e+00 0.000000000e+00 9.736936762e-01 -2.278609772e-01 9.736936762e-01 -2.278609772e-01 0.000000000e+00 0.000000000e+00
2.706861e+10 0.000000000e+00 0.000000000e+00 9.085147478e-01 -4.178527887e-01 9.085147478e-01 -4.178527887e-01 0.000000000e+00 0.000000000e+00
2.710063e+10 0.000000000e+00 0.000000000e+00 8.066816274e-01 -5.909862536e-01 8.066816274e-01 -5.909862536e-01 0.000000000e+00 0.000000000e+00
2.713265e+10 0.000000000e+00 0.000000000e+00 6.723027907e-01 -7.402762712e-01 6.723027907e-01 -7.402762712e-01 0.000000000e+00 0.000000000e+00
2.716467e+10 0.000000000e+00 0.000000000e+00 5.107997760e-01 -8.596997085e-01 5.107997760e-01 -8.596997085e-01 0.000000000e+00 0.000000000e+00
2.719670e+10 0.000000000e+00 0.000000000e+00 3.286884519e-01 -9.444384054e-01 3.286884519e-01 -9.444384054e-01 0.000000000e+00 0.000000000e+00
2.722872e+10 0.000000000e+00 0.000000000e+00 1.333161327e-01 -9.910735637e-01 1.333161327e-01 -9.910735637e-01 0.000000000e+00 0.000000000e+00
2.726074e+10 0.000000000e+00 0.000000000e+00 -6.743485000e-02 -9.977236797e-01 -6.743485000e-02 -9.977236797e-01 0.000000000e+00 0.000000000e+00
2.729276e+10 0.000000000e+00 0.000000000e+00 -2.654651615e-01 -9.641204531e-01 -2.654651615e-01 -9.641204531e-01 0.000000000e+00 0.000000000e+00
2.732478e+10 0.000000000e+00 0.000000000e+00 -4.527852330e-01 -8.916196122e-01 -4.527852330e-01 -8.916196122e-01 0.000000000e+00 0.000000000e+00
2.735681e+10 0.000000000e+00 0.000000000e+00 -6.218376022e-01 -7.831462165e-01 -6.218376022e-01 -7.831462165e-01 0.000000000e+00 0.000000000e+00
2.738883e+10 0.000000000e+00 0.000000000e+00 -7.658018208e-01 -6.430766449e-01 -7.658018208e-01 -6.430766449e-01 0.000000000e+00 0.000000000e+00
2.742085e+10 0.000000000e+00 0.000000000e+00 -8.788696262e-01 -4.770620297e-01 -8.788696262e-01 -4.770620297e-01 0.000000000e+00 0.000000000e+00
2.745287e+10 0.000000000e+00 0.000000000e+00 -9.564792774e-01 -2.918002604e-01 -9.564792774e-01 -2.918002604e-01 0.000000000e+00 0.000000000e+00
2.748489e+10 0.000000000e+00 0.000000000e+00 -9.954995989e-01 -9.476575675e-02 -9.954995989e-01 -9.476575675e-02 0.000000000e+00 0.000000000e+00
2.751692e+10 0.000000000e+00 0.000000000e+00 -9.943563088e-01 1.060920885e-01 -9.943563088e-01 1.060920885e-01 0.000000000e+00 0.000000000e+00
2.754894e+10 0.000000000e+00 0.000000000e+00 -9.530955333e-01 3.026696292e-01 -9.530955333e-01 3.026696292e-01 0.000000000e+00 0.000000000e+00
2.758096e+10 0.000000000e+00 0.000000000e+00 -8.733819459e-01 4.870359089e-01 -8.733819459e-01 4.870359089e-01 0.000000000e+00 0.000000000e+00
2.761298e+10 0.000000000e+00 0.000000000e+00 -7.584316057e-01 6.517526367e-01 -7.584316057e-01 6.517526367e-01 0.000000000e+00 0.000000000e+00
2.764501e+10 0.000000000e+00 0.000000000e+00 -6.128822050e-01 7.901742863e-01 -6.128822050e-01 7.901742863e-01 0.000000000e+00 0.000000000e+00
2.767703e+10 0.000000000e+00 0.000000000e+00 -4.426059608e-01 8.967162112e-01 -4.426059608e-01 8.967162112e-01 0.000000000e+00 0.000000000e+00
2.770905e+10 0.000000000e+00 0.000000000e+00 -2.544726989e-01 9.670799582e-01 -2.544726989e-01 9.670799582e-01 0.000000000e+00 0.000000000e+00
2.774107e+10 0.000000000e+00 0.000000000e+00 -5.607268994e-02 9.984266891e-01 -5.607268994e-02 9.984266891e-01 0.000000000e+00 0.000000000e+00
2.777309e+10 0.000000000e+00 0.000000000e+00 1.445895819e-01 9.894917144e-01 1.445895819e-01 9.894917144e-01 0.000000000e+00 0.000000000e+00
2.780512e+10 0.000000000e+00 0.000000000e+00 3.394183609e-01 9.406355173e-01 3.394183609e-01 9.406355173e-01 0.000000000e+00 0.000000000e+00
2.783714e+10 0.000000000e+00 0.000000000e+00 5.205532446e-01 8.538292098e-01 5.205532446e-01 8.538292098e-01 0.000000000e+00 0.000000000e+00
2.786916e+10 0.000000000e+00 0.000000000e+00 6.806863134e-01 7.325750083e-01 6.806863134e-01 7.325750083e-01 0.000000000e+00 0.000000000e+00
2.790118e+10 0.000000000e+00 0.000000000e+00 8.133569696e-01 5.817649354e-01 8.133569696e-01 5.817649354e-01 0.000000000e+00 0.000000000e+00
2.793320e+10 0.000000000e+00 0.000000000e+00 9.132125915e-01 4.074834508e-01 9.132125915e-01 4.074834508e-01 0.000000000e+00 0.000000000e+00
2.796523e+10 0.000000000e+00 0.000000000e+00 9.762244861e-01 2.167619726e-01 9.762244861e-01 2.167619726e-01 0.000000000e+00 0.000000000e+00
2.799725e+10 0.000000000e+00 0.000000000e+00 9.998504270e-01 1.729519330e-02 9.998504270e-01 1.729519330e-02 0.000000000e+00 0.000000000e+00
2.802927e+10 0.000000000e+00 0.000000000e+00 9.831372213e-01 -1.828693637e-01 9.831372213e-01 -1.828693637e-01 0.000000000e+00 0.000000000e+00
2.806129e+10 0.000000000e+00 0.000000000e+00 9.267591663e-01 -3.756560230e-01 9.267591663e-01 -3.756560230e-01 0.000000000e+00 0.000000000e+00
2.809331e+10 0.000000000e+00 0.000000000e+00 8.329908450e-01 -5.532867721e-01 8.329908450e-01 -5.532867721e-01 0.000000000e+00 0.000000000e+00
2.812534e+10 0.000000000e+00 0.000000000e+00 7.056153571e-01 -7.085950662e-01 7.056153571e-01 -7.085950662e-01 0.000000000e+00 0.000000000e+00
2.815736e+10 0.000000000e+00 0.000000000e+00 5.497716899e-01 -8.353149640e-01 5.497716899e-01 -8.353149640e-01 0.000000000e+00 0.000000000e+00
2.818938e+10 0.000000000e+00 0.000000000e+00 3.717473842e-01 -9.283339282e-01 3.717473842e-01 -9.283339282e-01 0.000000000e+00 0.000000000e+00
2.822140e+10 0.000000000e+00 0.000000000e+00 1.787248631e-01 -9.838990920e-01 1.787248631e-01 -9.838990920e-01 0.000000000e+00 0.000000000e+00
2.825342e+10 0.000000000e+00 0.000000000e+00 -2.150834508e-02 -9.997686688e-01 -2.150834508e-02 -9.997686688e-01 0.000000000e+00 0.000000000e+00
2.828545e+10 0.000000000e+00 0.000000000e+00 -2.208737952e-01 -9.753023975e-01 -2.208737952e-01 -9.753023975e-01 0.000000000e+00 0.000000000e+00
2.831747e+10 0.000000000e+00 0.000000000e+00 -4.113280520e-01 -9.114873744e-01 -4.113280520e-01 -9.114873744e-01 0.000000000e+00 0.000000000e+00
2.834949e+10 0.000000000e+00 0.000000000e+00 -5.851872040e-01 -8.108982281e-01 -5.851872040e-01 -8.108982281e-01 0.000000000e+00 0.000000000e+00
2.838151e+10 0.000000000e+00 0.000000000e+00 -7.354368723e-01 -6.775932459e-01 -7.354368723e-01 -6.775932459e-01 0.000000000e+00 0.000000000e+00
2.841353e+10 0.000000000e+00 0.000000000e+00 -8.560152068e-01 -5.169506414e-01 -8.560152068e-01 -5.169506414e-01 0.000000000e+00 0.000000000e+00
2.844556e+10 0.000000000e+00 0.000000000e+00 -9.420574528e-01 -3.354515698e-01 -9.420574528e-01 -3.354515698e-01 0.000000000e+00 0.000000000e+00
2.847758e+10 0.000000000e+00 0.000000000e+00 -9.900922202e-01 -1.404186437e-01 -9.900922202e-01 -1.404186437e-01 0.000000000e+00 0.000000000e+00
2.850960e+10 0.000000000e+00 0.000000000e+00 -9.981815377e-01 6.027949790e-02 -9.981815377e-01 6.027949790e-02 0.000000000e+00 0.000000000e+00
2.854162e+10 0.000000000e+00 0.000000000e+00 -9.659990402e-01 2.585456523e-01 -9.659990402e-01 2.585456523e-01 0.000000000e+00 0.000000000e+00
2.857364e+10 0.000000000e+00 0.000000000e+00 -8.948431365e-01 4.463807355e-01 -8.948431365e-01 4.463807355e-01 0.000000000e+00 0.000000000e+00
2.860567e+10 0.000000000e+00 0.000000000e+00 -7.875846244e-01 6.162065071e-01 -7.875846244e-01 6.162065071e-01 0.000000000e+00 0.000000000e+00
2.863769e+10 0.000000000e+00 0.000000000e+00 -6.485508680e-01 7.611713155e-01 -6.485508680e-01 7.611713155e-01 0.000000000e+00 0.000000000e+00
2.866971e+10 0.000000000e+00 0.000000000e+00 -4.833512094e-01 8.754265294e-01 -4.833512094e-01 8.754265294e-01 0.000000000e+00 0.000000000e+00
2.870173e+10 0.000000000e+00 0.000000000e+00 -2.986506587e-01 9.543625014e-01 -2.986506587e-01 9.543625014e-01 0.000000000e+00 0.000000000e+00
2.873375e+10 0.000000000e+00 0.000000000e+00 -1.019009931e-01 9.947945454e-01 -1.019009931e-01 9.947945454e-01 0.000000000e+00 0.000000000e+00
2.876578e+10 0.000000000e+00 0.000000000e+00 9.895988658e-02 9.950914234e-01 9.895988658e-02 9.950914234e-01 0.000000000e+00 0.000000000e+00
2.879780e+10 0.000000000e+00 0.000000000e+00 2.958282117e-01 9.552411576e-01 2.958282117e-01 9.552411576e-01 0.000000000e+00 0.000000000e+00
2.882982e+10 0.000000000e+00 0.000000000e+00 4.807612940e-01 8.768515143e-01 4.807612940e-01 8.768515143e-01 0.000000000e+00 0.000000000e+00
2.886184e+10 0.000000000e+00 0.000000000e+00 6.462979749e-01 7.630851379e-01 6.462979749e-01 7.630851379e-01 0.000000000e+00 0.000000000e+00
2.889386e+10 0.000000000e+00 0.000000000e+00 7.857596469e-01 6.185319534e-01 7.857596469e-01 6.185319534e-01 0.000000000e+00 0.000000000e+00
2.892589e+10 0.000000000e+00 0.000000000e+00 8.935197036e-01 4.490239852e-01 8.935197036e-01 4.490239852e-01 0.000000000e+00 0.000000000e+00
2.895791e+10 0.000000000e+00 0.000000000e+00 9.652305461e-01 2.614000630e-01 9.652305461e-01 2.614000630e-01 0.000000000e+00 0.000000000e+00
2.898993e+10 0.000000000e+00 0.000000000e+00 9.979989873e-01 6.322990791e-02 9.979989873e-01 6.322990791e-02 0.000000000e+00 0.000000000e+00
2.902195e+10 0.000000000e+00 0.000000000e+00 9.905029787e-01 -1.374912693e-01 9.905029787e-01 -1.374912693e-01 0.000000000e+00 0.000000000e+00
2.905397e+10 0.000000000e+00 0.000000000e+00 9.430449480e-01 -3.326653363e-01 9.430449480e-01 -3.326653363e-01 0.000000000e+00 0.000000000e+00
2.908600e+10 0.000000000e+00 0.000000000e+00 8.575395981e-01 -5.144179600e-01 8.575395981e-01 -5.144179600e-01 0.000000000e+00 0.000000000e+00
2.911802e+10 0.000000000e+00 0.000000000e+00 7.374366578e-01 -6.754162981e-01 7.374366578e-01 -6.754162981e-01 0.000000000e+00 0.000000000e+00
2.915004e+10 0.000000000e+00 0.000000000e+00 5.875817020e-01 -8.091648432e-01 5.875817020e-01 -8.091648432e-01 0.000000000e+00 0.000000000e+00
2.918206e+10 0.000000000e+00 0.000000000e+00 4.140206560e-01 -9.102674862e-01 4.140206560e-01 -9.102674862e-01 0.000000000e+00 0.000000000e+00
2.921408e+10 0.000000000e+00 0.000000000e+00 2.237558717e-01 -9.746452226e-01 2.237558717e-01 -9.746452226e-01 0.000000000e+00 0.000000000e+00
2.924611e+10 0.000000000e+00 0.000000000e+00 2.446361613e-02 -9.997007210e-01 2.446361613e-02 -9.997007210e-01 0.000000000e+00 0.000000000e+00
2.927813e+10 0.000000000e+00 0.000000000e+00 -1.758156284e-01 -9.844231127e-01 -1.758156284e-01 -9.844231127e-01 0.000000000e+00 0.000000000e+00
2.931015e+10 0.000000000e+00 0.000000000e+00 -3.690015596e-01 -9.294287757e-01 -3.690015596e-01 -9.294287757e-01 0.000000000e+00 0.000000000e+00
2.934217e+10 0.000000000e+00 0.000000000e+00 -5.473000560e-01 -8.369364663e-01 -5.473000560e-01 -8.369364663e-01 0.000000000e+00 0.000000000e+00
2.937419e+10 0.000000000e+00 0.000000000e+00 -7.035176326e-01 -7.106778037e-01 -7.035176326e-01 -7.106778037e-01 0.000000000e+00 0.000000000e+00
2.940622e+10 0.000000000e+00 0.000000000e+00 -8.313516628e-01 -5.557467164e-01 -8.313516628e-01 -5.557467164e-01 0.000000000e+00 0.000000000e+00
2.943824e+10 0.000000000e+00 0.000000000e+00 -9.256446596e-01 -3.783939271e-01 -9.256446596e-01 -3.783939271e-01 0.000000000e+00 0.000000000e+00
2.947026e+10 0.000000000e+00 0.000000000e+00 -9.825923550e-01 -1.857747663e-01 -9.825923550e-01 -1.857747663e-01 0.000000000e+00 0.000000000e+00
2.950228e+10 0.000000000e+00 0.000000000e+00 -9.998971839e-01 1.433951104e-02 -9.998971839e-01 1.433951104e-02 0.000000000e+00 0.000000000e+00
2.953430e+10 0.000000000e+00 0.000000000e+00 -9.768609798e-01 2.138752582e-01 -9.768609798e-01 2.138752582e-01 0.000000000e+00 0.000000000e+00
2.956633e+10 0.000000000e+00 0.000000000e+00 -9.144131426e-01 4.047821694e-01 -9.144131426e-01 4.047821694e-01 0.000000000e+00 0.000000000e+00
2.959835e+10 0.000000000e+00 0.000000000e+00 -8.150731415e-01 5.793580707e-01 -8.150731415e-01 5.793580707e-01 0.000000000e+00 0.000000000e+00
2.963037e+10 0.000000000e+00 0.000000000e+00 -6.828488669e-01 7.305596656e-01 -6.828488669e-01 7.305596656e-01 0.000000000e+00 0.000000000e+00
2.966239e+10 0.000000000e+00 0.000000000e+00 -5.230749311e-01 8.522866985e-01 -5.230749311e-01 8.522866985e-01 0.000000000e+00 0.000000000e+00
2.969441e+10 0.000000000e+00 0.000000000e+00 -3.421974424e-01 9.396280702e-01 -3.421974424e-01 9.396280702e-01 0.000000000e+00 0.000000000e+00
2.972644e+10 0.000000000e+00 0.000000000e+00 -1.475139360e-01 9.890599773e-01 -1.475139360e-01 9.890599773e-01 0.000000000e+00 0.000000000e+00
2.975846e+10 0.000000000e+00 0.000000000e+00 5.312104690e-02 9.985880804e-01 5.312104690e-02 9.985880804e-01 0.000000000e+00 0.000000000e+00
2.979048e+10 0.000000000e+00 0.000000000e+00 2.516128515e-01 9.678279666e-01 2.516128515e-01 9.678279666e-01 0.000000000e+00 0.000000000e+00
2.982250e+10 0.000000000e+00 0.000000000e+00 4.399532901e-01 8.980206582e-01 4.399532901e-01 8.980206582e-01 0.000000000e+00 0.000000000e+00
2.985452e+10 0.000000000e+00 0.000000000e+00 6.105437335e-01 7.919825437e-01 6.105437335e-01 7.919825437e-01 0.000000000e+00 0.000000000e+00
2.988655e+10 0.000000000e+00 0.000000000e+00 7.565016794e-01 6.539917500e-01 7.565016794e-01 6.539917500e-01 0.000000000e+00 0.000000000e+00
2.991857e+10 0.000000000e+00 0.000000000e+00 8.719384280e-01 4.896155407e-01 8.719384280e-01 4.896155407e-01 0.000000000e+00 0.000000000e+00
2.995059e+10 0.000000000e+00 0.000000000e+00 9.521966629e-01 3.054857038e-01 9.521966629e-01 3.054857038e-01 0.000000000e+00 0.000000000e+00
2.998261e+10 0.000000000e+00 0.000000000e+00 9.940383509e-01 1.090309908e-01 9.940383509e-01 1.090309908e-01 0.000000000e+00 0.000000000e+00
3.001463e+10 0.000000000e+00 0.000000000e+00 9.957753816e-01 -9.182259727e-02 9.957753816e-01 -9.182259727e-02 0.000000000e+00 0.000000000e+00
3.004666e+10 0.000000000e+00 0.000000000e+00 9.573376742e-01 -2.889715860e-01 9.573376742e-01 -2.889715860e-01 0.000000000e+00 0.000000000e+00
3.007868e+10 0.000000000e+00 0.000000000e+00 8.802760050e-01 -4.744619638e-01 8.802760050e-01 -4.744619638e-01 0.000000000e+00 0.000000000e+00
3.011070e+10 0.000000000e+00 0.000000000e+00 7.676994409e-01 -6.408100877e-01 7.676994409e-01 -6.408100877e-01 0.000000000e+00 0.000000000e+00
3.014272e+10 0.000000000e+00 0.000000000e+00 6.241499038e-01 -7.813046125e-01 6.241499038e-01 -7.813046125e-01 0.000000000e+00 0.000000000e+00
3.017474e+10 0.000000000e+00 0.000000000e+00 4.554189258e-01 -8.902772613e-01 4.554189258e-01 -8.902772613e-01 0.000000000e+00 0.000000000e+00
3.020677e+10 0.000000000e+00 0.000000000e+00 2.683139888e-01 -9.633315127e-01 2.683139888e-01 -9.633315127e-01 0.000000000e+00 0.000000000e+00
3.023879e+10 0.000000000e+00 0.000000000e+00 7.038387530e-02 -9.975199798e-01 7.038387530e-02 -9.975199798e-01 0.000000000e+00 0.000000000e+00
3.027081e+10 0.000000000e+00 0.000000000e+00 -1.303858884e-01 -9.914633226e-01 -1.303858884e-01 -9.914633226e-01 0.000000000e+00 0.000000000e+00
3.030283e+10 0.000000000e+00 0.000000000e+00 -3.258952098e-01 -9.454058981e-01 -3.258952098e-01 -9.454058981e-01 0.000000000e+00 0.000000000e+00
3.033485e+10 0.000000000e+00 0.000000000e+00 -5.082562300e-01 -8.612059015e-01 -5.082562300e-01 -8.612059015e-01 0.000000000e+00 0.000000000e+00
3.036688e+10 0.000000000e+00 0.000000000e+00 -6.701115605e-01 -7.422603967e-01 -6.701115605e-01 -7.422603967e-01 0.000000000e+00 0.000000000e+00
3.039890e+10 0.000000000e+00 0.000000000e+00 -8.049311187e-01 -5.933682618e-01 -8.049311187e-01 -5.933682618e-01 0.000000000e+00 0.000000000e+00
3.043092e+10 0.000000000e+00 0.000000000e+00 -9.072755852e-01 -4.205365770e-01 -9.072755852e-01 -4.205365770e-01 0.000000000e+00 0.000000000e+00
3.046294e+10 0.000000000e+00 0.000000000e+00 -9.730158538e-01 -2.307382677e-01 -9.730158538e-01 -2.307382677e-01 0.000000000e+00 0.000000000e+00
3.049496e+10 0.000000000e+00 0.000000000e+00 -9.994996216e-01 -3.163078131e-02 -9.994996216e-01 -3.163078131e-02 0.000000000e+00 0.000000000e+00
3.052699e+10 0.000000000e+00 0.000000000e+00 -9.856583962e-01 1.687528547e-01 -9.856583962e-01 1.687528547e-01 0.000000000e+00 0.000000000e+00
3.055901e+10 0.000000000e+00 0.000000000e+00 -9.320506043e-01 3.623281263e-01 -9.320506043e-01 3.623281263e-01 0.000000000e+00 0.000000000e+00
3.059103e+10 0.000000000e+00 0.000000000e+00 -8.408390619e-01 5.412852039e-01 -8.408390619e-01 5.412852039e-01 0.000000000e+00 0.000000000e+00
3.062305e+10 0.000000000e+00 0.000000000e+00 -7.157037153e-01 6.984040320e-01 -7.157037153e-01 6.984040320e-01 0.000000000e+00 0.000000000e+00
3.065508e+10 0.000000000e+00 0.000000000e+00 -5.616931727e-01 8.273456229e-01 -5.616931727e-01 8.273456229e-01 0.000000000e+00 0.000000000e+00
3.068710e+10 0.000000000e+00 0.000000000e+00 -3.850210172e-01 9.229078049e-01 -3.850210172e-01 9.229078049e-01 0.000000000e+00 0.000000000e+00
3.071912e+10 0.000000000e+00 0.000000000e+00 -1.928151192e-01 9.812351043e-01 -1.928151192e-01 9.812351043e-01 0.000000000e+00 0.000000000e+00
3.075114e+10 0.000000000e+00 0.000000000e+00 7.169939818e-03 9.999742957e-01 7.169939818e-03 9.999742957e-01 0.000000000e+00 0.000000000e+00
3.078316e+10 0.000000000e+00 0.000000000e+00 2.068657263e-01 9.783693430e-01 2.068657263e-01 9.783693430e-01 0.000000000e+00 0.000000000e+00
3.081519e+10 0.000000000e+00 0.000000000e+00 3.982154775e-01 9.172919020e-01 3.982154775e-01 9.172919020e-01 0.000000000e+00 0.000000000e+00
3.084721e+10 0.000000000e+00 0.000000000e+00 5.734991533e-01 8.192061531e-01 5.734991533e-01 8.192061531e-01 0.000000000e+00 0.000000000e+00
3.087923e+10 0.000000000e+00 0.000000000e+00 7.256449018e-01 6.880693835e-01 7.256449018e-01 6.880693835e-01 0.000000000e+00 0.000000000e+00
3.091125e+10 0.000000000e+00 0.000000000e+00 8.485143753e-01 5.291723301e-01 8.485143753e-01 5.291723301e-01 0.000000000e+00 0.000000000e+00
3.094327e+10 0.000000000e+00 0.000000000e+00 9.371503827e-01 3.489257232e-01 9.371503827e-01 3.489257232e-01 0.000000000e+00 0.000000000e+00
3.097530e+10 0.000000000e+00 0.000000000e+00 9.879768881e-01 1.546016448e-01 9.879768881e-01 1.546016448e-01 0.000000000e+00 0.000000000e+00
3.100732e+10 0.000000000e+00 0.000000000e+00 9.989432871e-01 -4.595986502e-02 9.989432871e-01 -4.595986502e-02 0.000000000e+00 0.000000000e+00
3.103934e+10 0.000000000e+00 0.000000000e+00 9.696071382e-01 -2.446671157e-01 9.696071382e-01 -2.446671157e-01 0.000000000e+00 0.000000000e+00
3.107136e+10 0.000000000e+00 0.000000000e+00 9.011520138e-01 -4.335032273e-01 9.011520138e-01 -4.335032273e-01 0.000000000e+00 0.000000000e+00
3.110338e+10 0.000000000e+00 0.000000000e+00 7.963397481e-01 -6.048495727e-01 7.963397481e-01 -6.048495727e-01 0.000000000e+00 0.000000000e+00
3.113541e+10 0.000000000e+00 0.000000000e+00 6.593990111e-01 -7.517931525e-01 6.593990111e-01 -7.517931525e-01 0.000000000e+00 0.000000000e+00
3.116743e+10 0.000000000e+00 0.000000000e+00 4.958547015e-01 -8.684055015e-01 4.958547015e-01 -8.684055015e-01 0.000000000e+00 0.000000000e+00
3.119945e+10 0.000000000e+00 0.000000000e+00 3.123050442e-01 -9.499818732e-01 3.123050442e-01 -9.499818732e-01 0.000000000e+00 0.000000000e+00
3.123147e+10 0.000000000e+00 0.000000000e+00 1.161553834e-01 -9.932310541e-01 1.161553834e-01 -9.932310541e-01 0.000000000e+00 0.000000000e+00
3.126349e+10 0.000000000e+00 0.000000000e+00 -8.468058747e-02 -9.964081484e-01 -8.468058747e-02 -9.964081484e-01 0.000000000e+00 0.000000000e+00
3.129552e+10 0.000000000e+00 0.000000000e+00 -2.821001047e-01 -9.593849754e-01 -2.821001047e-01 -9.593849754e-01 0.000000000e+00 0.000000000e+00
3.132754e+10 0.000000000e+00 0.000000000e+00 -4.681382421e-01 -8.836552418e-01 -4.681382421e-01 -8.836552418e-01 0.000000000e+00 0.000000000e+00
3.135956e+10 0.000000000e+00 0.000000000e+00 -6.352892573e-01 -7.722742774e-01 -6.352892573e-01 -7.722742774e-01 0.000000000e+00 0.000000000e+00
3.139158e+10 0.000000000e+00 0.000000000e+00 -7.768094124e-01 -6.297357675e-01 -7.768094124e-01 -6.297357675e-01 0.000000000e+00 0.000000000e+00
3.142360e+10 0.000000000e+00 0.000000000e+00 -8.869890510e-01 -4.617904540e-01 -8.869890510e-01 -4.617904540e-01 0.000000000e+00 0.000000000e+00
3.145563e+10 0.000000000e+00 0.000000000e+00 -9.613829558e-01 -2.752141209e-01 -9.613829558e-01 -2.752141209e-01 0.000000000e+00 0.000000000e+00
3.148765e+10 0.000000000e+00 0.000000000e+00 -9.969896910e-01 -7.753422435e-02 -9.969896910e-01 -7.753422435e-02 0.000000000e+00 0.000000000e+00
3.151967e+10 0.000000000e+00 0.000000000e+00 -9.923726967e-01 1.232738046e-01 -9.923726967e-01 1.232738046e-01 0.000000000e+00 0.000000000e+00
3.155169e+10 0.000000000e+00 0.000000000e+00 -9.477182461e-01 3.191083295e-01 -9.477182461e-01 3.191083295e-01 0.000000000e+00 0.000000000e+00
3.158371e+10 0.000000000e+00 0.000000000e+00 -8.648279313e-01 5.020683711e-01 -8.648279313e-01 5.020683711e-01 0.000000000e+00 0.000000000e+00
3.161574e+10 0.000000000e+00 0.000000000e+00 -7.470459770e-01 6.647723733e-01 -7.470459770e-01 6.647723733e-01 0.000000000e+00 0.000000000e+00
3.164776e+10 0.000000000e+00 0.000000000e+00 -5.991243174e-01 8.006560137e-01 -5.991243174e-01 8.006560137e-01 0.000000000e+00 0.000000000e+00
3.167978e+10 0.000000000e+00 0.000000000e+00 -4.270308787e-01 9.042370423e-01 -4.270308787e-01 9.042370423e-01 0.000000000e+00 0.000000000e+00
3.171180e+10 0.000000000e+00 0.000000000e+00 -2.377088019e-01 9.713364636e-01 -2.377088019e-01 9.713364636e-01 0.000000000e+00 0.000000000e+00
3.174382e+10 0.000000000e+00 0.000000000e+00 -3.879632040e-02 9.992471394e-01 -3.879632040e-02 9.992471394e-01 0.000000000e+00 0.000000000e+00
3.177585e+10 0.000000000e+00 0.000000000e+00 1.616814057e-01 9.868430083e-01 1.616814057e-01 9.868430083e-01 0.000000000e+00 0.000000000e+00
3.180787e+10 0.000000000e+00 0.000000000e+00 3.556360661e-01 9.346245174e-01 3.556360661e-01 9.346245174e-01 0.000000000e+00 0.000000000e+00
3.183989e+10 0.000000000e+00 0.000000000e+00 5.352425251e-01 8.446984310e-01 5.352425251e-01 8.446984310e-01 0.000000000e+00 0.000000000e+00
3.187191e+10 0.000000000e+00 0.000000000e+00 6.932545274e-01 7.206928335e-01 6.932545274e-01 7.206928335e-01 0.000000000e+00 0.000000000e+00
3.190393e+10 0.000000000e+00 0.000000000e+00 8.232970503e-01 5.676107530e-01 8.232970503e-01 5.676107530e-01 0.000000000e+00 0.000000000e+00
3.193596e+10 0.000000000e+00 0.000000000e+00 9.201235046e-01 3.916283139e-01 9.201235046e-01 3.916283139e-01 0.000000000e+00 0.000000000e+00
3.196798e+10 0.000000000e+00 0.000000000e+00 9.798274094e-01 1.998455596e-01 9.798274094e-01 1.998455596e-01 0.000000000e+00 0.000000000e+00
3.200000e+10 0.000000000e+00 0.000000000e+00 1.000000000e+00 -2.058396992e-14 1.000000000e+00 -2.058396992e-14 0.000000000e+00 0.000000000e+00
