! GOLDEN FIXTURE - generated by generate_golden_channels.py
! Matched single-pole low-pass, fc = 8 GHz (tau_c = 19.894 ps)
! Known result: worst-case NRZ eye opening at phase phi is
! 2*(1 - 2*exp(-phi/tau_c)) for UI-aligned sampling
# HZ S RI R 50
1.000000e+07 0.000000000e+00 0.000000000e+00 9.999984375e-01 -1.249998047e-03 9.999984375e-01 -1.249998047e-03 0.000000000e+00 0.000000000e+00
7.670447e+07 0.000000000e+00 0.000000000e+00 9.999080776e-01 -9.587177348e-03 9.999080776e-01 -9.587177348e-03 0.000000000e+00 0.000000000e+00
1.434089e+08 0.000000000e+00 0.000000000e+00 9.996787575e-01 -1.792035878e-02 9.996787575e-01 -1.792035878e-02 0.000000000e+00 0.000000000e+00
2.101134e+08 0.000000000e+00 0.000000000e+00 9.993106686e-01 -2.624607140e-02 9.993106686e-01 -2.624607140e-02 0.000000000e+00 0.000000000e+00
2.768179e+08 0.000000000e+00 0.000000000e+00 9.988041172e-01 -3.456085461e-02 9.988041172e-01 -3.456085461e-02 0.000000000e+00 0.000000000e+00
3.435223e+08 0.000000000e+00 0.000000000e+00 9.981595248e-01 -4.286126298e-02 9.981595248e-01 -4.286126298e-02 0.000000000e+00 0.000000000e+00
4.102268e+08 0.000000000e+00 0.000000000e+00 9.973774266e-01 -5.114387099e-02 9.973774266e-01 -5.114387099e-02 0.000000000e+00 0.000000000e+00
4.769313e+08 0.000000000e+00 0.000000000e+00 9.964584706e-01 -5.940527767e-02 9.964584706e-01 -5.940527767e-02 0.000000000e+00 0.000000000e+00
5.436358e+08 0.000000000e+00 0.000000000e+00 9.954034162e-01 -6.764211123e-02 9.954034162e-01 -6.764211123e-02 0.000000000e+00 0.000000000e+00
6.103402e+08 0.000000000e+00 0.000000000e+00 9.942131329e-01 -7.585103363e-02 9.942131329e-01 -7.585103363e-02 0.000000000e+00 0.000000000e+00
6.770447e+08 0.000000000e+00 0.000000000e+00 9.928885980e-01 -8.402874493e-02 9.928885980e-01 -8.402874493e-02 0.000000000e+00 0.000000000e+00
7.437492e+08 0.000000000e+00 0.000000000e+00 9.914308951e-01 -9.217198769e-02 9.914308951e-01 -9.217198769e-02 0.000000000e+00 0.000000000e+00
8.104536e+08 0.000000000e+00 0.000000000e+00 9.898412118e-01 -1.002775511e-01 9.898412118e-01 -1.002775511e-01 0.000000000e+00 0.000000000e+00
8.771581e+08 0.000000000e+00 0.000000000e+00 9.881208369e-01 -1.083422752e-01 9.881208369e-01 -1.083422752e-01 0.000000000e+00 0.000000000e+00
9.438626e+08 0.000000000e+00 0.000000000e+00 9.862711585e-01 -1.163630544e-01 9.862711585e-01 -1.163630544e-01 0.000000000e+00 0.000000000e+00
1.010567e+09 0.000000000e+00 0.000000000e+00 9.842936606e-01 -1.243368420e-01 9.842936606e-01 -1.243368420e-01 0.000000000e+00 0.000000000e+00
1.077272e+09 0.000000000e+00 0.000000000e+00 9.821899208e-01 -1.322606529e-01 9.821899208e-01 -1.322606529e-01 0.000000000e+00 0.000000000e+00
1.143976e+09 0.000000000e+00 0.000000000e+00 9.799616065e-01 -1.401315679e-01 9.799616065e-01 -1.401315679e-01 0.000000000e+00 0.000000000e+00
1.210680e+09 0.000000000e+00 0.000000000e+00 9.776104723e-01 -1.479467363e-01 9.776104723e-01 -1.479467363e-01 0.000000000e+00 0.000000000e+00
1.277385e+09 0.000000000e+00 0.000000000e+00 9.751383563e-01 -1.557033793e-01 9.751383563e-01 -1.557033793e-01 0.000000000e+00 0.000000000e+00
1.344089e+09 0.000000000e+00 0.000000000e+00 9.725471769e-01 -1.633987931e-01 9.725471769e-01 -1.633987931e-01 0.000000000e+00 0.000000000e+00
1.410794e+09 0.000000000e+00 0.000000000e+00 9.698389288e-01 -1.710303511e-01 9.698389288e-01 -1.710303511e-01 0.000000000e+00 0.000000000e+00
1.477498e+09 0.000000000e+00 0.000000000e+00 9.670156796e-01 -1.785955067e-01 9.670156796e-01 -1.785955067e-01 0.000000000e+00 0.000000000e+00
1.544203e+09 0.000000000e+00 0.000000000e+00 9.640795659e-01 -1.860917959e-01 9.640795659e-01 -1.860917959e-01 0.000000000e+00 0.000000000e+00
1.610907e+09 0.000000000e+00 0.000000000e+00 9.610327897e-01 -1.935168386e-01 9.610327897e-01 -1.935168386e-01 0.000000000e+00 0.000000000e+00
1.677612e+09 0.000000000e+00 0.000000000e+00 9.578776140e-01 -2.008683415e-01 9.578776140e-01 -2.008683415e-01 0.000000000e+00 0.000000000e+00
1.744316e+09 0.000000000e+00 0.000000000e+00 9.546163593e-01 -2.081440988e-01 9.546163593e-01 -2.081440988e-01 0.000000000e+00 0.000000000e+00
1.811021e+09 0.000000000e+00 0.000000000e+00 9.512513993e-01 -2.153419946e-01 9.512513993e-01 -2.153419946e-01 0.000000000e+00 0.000000000e+00
1.877725e+09 0.000000000e+00 0.000000000e+00 9.477851571e-01 -2.224600033e-01 9.477851571e-01 -2.224600033e-01 0.000000000e+00 0.000000000e+00
1.944430e+09 0.000000000e+00 0.000000000e+00 9.442201010e-01 -2.294961915e-01 9.442201010e-01 -2.294961915e-01 0.000000000e+00 0.000000000e+00
2.011134e+09 0.000000000e+00 0.000000000e+00 9.405587403e-01 -2.364487182e-01 9.405587403e-01 -2.364487182e-01 0.000000000e+00 0.000000000e+00
2.077839e+09 0.000000000e+00 0.000000000e+00 9.368036218e-01 -2.433158359e-01 9.368036218e-01 -2.433158359e-01 0.000000000e+00 0.000000000e+00
2.144543e+09 0.000000000e+00 0.000000000e+00 9.329573251e-01 -2.500958909e-01 9.329573251e-01 -2.500958909e-01 0.000000000e+00 0.000000000e+00
2.211247e+09 0.000000000e+00 0.000000000e+00 9.290224591e-01 -2.567873236e-01 9.290224591e-01 -2.567873236e-01 0.000000000e+00 0.000000000e+00
2.277952e+09 0.000000000e+00 0.000000000e+00 9.250016581e-01 -2.633886684e-01 9.250016581e-01 -2.633886684e-01 0.000000000e+00 0.000000000e+00
2.344656e+09 0.000000000e+00 0.000000000e+00 9.208975772e-01 -2.698985541e-01 9.208975772e-01 -2.698985541e-01 0.000000000e+00 0.000000000e+00
2.411361e+09 0.000000000e+00 0.000000000e+00 9.167128894e-01 -2.763157031e-01 9.167128894e-01 -2.763157031e-01 0.000000000e+00 0.000000000e+00
2.478065e+09 0.000000000e+00 0.000000000e+00 9.124502813e-01 -2.826389313e-01 9.124502813e-01 -2.826389313e-01 0.000000000e+00 0.000000000e+00
2.544770e+09 0.000000000e+00 0.000000000e+00 9.081124492e-01 -2.888671473e-01 9.081124492e-01 -2.888671473e-01 0.000000000e+00 0.000000000e+00
2.611474e+09 0.000000000e+00 0.000000000e+00 9.037020962e-01 -2.949993517e-01 9.037020962e-01 -2.949993517e-01 0.000000000e+00 0.000000000e+00
2.678179e+09 0.000000000e+00 0.000000000e+00 8.992219279e-01 -3.010346364e-01 8.992219279e-01 -3.010346364e-01 0.000000000e+00 0.000000000e+00
2.744883e+09 0.000000000e+00 0.000000000e+00 8.946746494e-01 -3.069721830e-01 8.946746494e-01 -3.069721830e-01 0.000000000e+00 0.000000000e+00
2.811588e+09 0.000000000e+00 0.000000000e+00 8.900629618e-01 -3.128112623e-01 8.900629618e-01 -3.128112623e-01 0.000000000e+00 0.000000000e+00
2.878292e+09 0.000000000e+00 0.000000000e+00 8.853895593e-01 -3.185512322e-01 8.853895593e-01 -3.185512322e-01 0.000000000e+00 0.000000000e+00
2.944997e+09 0.000000000e+00 0.000000000e+00 8.806571256e-01 -3.241915372e-01 8.806571256e-01 -3.241915372e-01 0.000000000e+00 0.000000000e+00
3.011701e+09 0.000000000e+00 0.000000000e+00 8.758683310e-01 -3.297317057e-01 8.758683310e-01 -3.297317057e-01 0.000000000e+00 0.000000000e+00
3.078406e+09 0.000000000e+00 0.000000000e+00 8.710258299e-01 -3.351713495e-01 8.710258299e-01 -3.351713495e-01 0.000000000e+00 0.000000000e+00
3.145110e+09 0.000000000e+00 0.000000000e+00 8.661322578e-01 -3.405101611e-01 8.661322578e-01 -3.405101611e-01 0.000000000e+00 0.000000000e+00
3.211815e+09 0.000000000e+00 0.000000000e+00 8.611902283e-01 -3.457479125e-01 8.611902283e-01 -3.457479125e-01 0.000000000e+00 0.000000000e+00
3.278519e+09 0.000000000e+00 0.000000000e+00 8.562023313e-01 -3.508844527e-01 8.562023313e-01 -3.508844527e-01 0.000000000e+00 0.000000000e+00
3.345223e+09 0.000000000e+00 0.000000000e+00 8.511711300e-01 -3.559197065e-01 8.511711300e-01 -3.559197065e-01 0.000000000e+00 0.000000000e+00
3.411928e+09 0.000000000e+00 0.000000000e+00 8.460991590e-01 -3.608536713e-01 8.460991590e-01 -3.608536713e-01 0.000000000e+00 0.000000000e+00
3.478632e+09 0.000000000e+00 0.000000000e+00 8.409889220e-01 -3.656864163e-01 8.409889220e-01 -3.656864163e-01 0.000000000e+00 0.000000000e+00
3.545337e+09 0.000000000e+00 0.000000000e+00 8.358428899e-01 -3.704180791e-01 8.358428899e-01 -3.704180791e-01 0.000000000e+00 0.000000000e+00
3.612041e+09 0.000000000e+00 0.000000000e+00 8.306634987e-01 -3.750488643e-01 8.306634987e-01 -3.750488643e-01 0.000000000e+00 0.000000000e+00
3.678746e+09 0.000000000e+00 0.000000000e+00 8.254531482e-01 -3.795790409e-01 8.254531482e-01 -3.795790409e-01 0.000000000e+00 0.000000000e+00
3.745450e+09 0.000000000e+00 0.000000000e+00 8.202142000e-01 -3.840089402e-01 8.202142000e-01 -3.840089402e-01 0.000000000e+00 0.000000000e+00
3.812155e+09 0.000000000e+00 0.000000000e+00 8.149489759e-01 -3.883389532e-01 8.149489759e-01 -3.883389532e-01 0.000000000e+00 0.000000000e+00
3.878859e+09 0.000000000e+00 0.000000000e+00 8.096597571e-01 -3.925695287e-01 8.096597571e-01 -3.925695287e-01 0.000000000e+00 0.000000000e+00
3.945564e+09 0.000000000e+00 0.000000000e+00 8.043487822e-01 -3.967011706e-01 8.043487822e-01 -3.967011706e-01 0.000000000e+00 0.000000000e+00
4.012268e+09 0.000000000e+00 0.000000000e+00 7.990182469e-01 -4.007344358e-01 7.990182469e-01 -4.007344358e-01 0.000000000e+00 0.000000000e+00
4.078973e+09 0.000000000e+00 0.000000000e+00 7.936703021e-01 -4.046699318e-01 7.936703021e-01 -4.046699318e-01 0.000000000e+00 0.000000000e+00
4.145677e+09 0.000000000e+00 0.000000000e+00 7.883070536e-01 -4.085083143e-01 7.883070536e-01 -4.085083143e-01 0.000000000e+00 0.000000000e+00
4.212382e+09 0.000000000e+00 0.000000000e+00 7.829305612e-01 -4.122502851e-01 7.829305612e-01 -4.122502851e-01 0.000000000e+00 0.000000000e+00
4.279086e+09 0.000000000e+00 0.000000000e+00 7.775428378e-01 -4.158965895e-01 7.775428378e-01 -4.158965895e-01 0.000000000e+00 0.000000000e+00
4.345791e+09 0.000000000e+00 0.000000000e+00 7.721458490e-01 -4.194480145e-01 7.721458490e-01 -4.194480145e-01 0.000000000e+00 0.000000000e+00
4.412495e+09 0.000000000e+00 0.000000000e+00 7.667415125e-01 -4.229053860e-01 7.667415125e-01 -4.229053860e-01 0.000000000e+00 0.000000000e+00
4.479199e+09 0.000000000e+00 0.000000000e+00 7.613316979e-01 -4.262695669e-01 7.613316979e-01 -4.262695669e-01 0.000000000e+00 0.000000000e+00
4.545904e+09 0.000000000e+00 0.000000000e+00 7.559182262e-01 -4.295414549e-01 7.559182262e-01 -4.295414549e-01 0.000000000e+00 0.000000000e+00
4.612608e+09 0.000000000e+00 0.000000000e+00 7.505028694e-01 -4.327219805e-01 7.505028694e-01 -4.327219805e-01 0.000000000e+00 0.000000000e+00
4.679313e+09 0.000000000e+00 0.000000000e+00 7.450873511e-01 -4.358121044e-01 7.450873511e-01 -4.358121044e-01 0.000000000e+00 0.000000000e+00
4.746017e+09 0.000000000e+00 0.000000000e+00 7.396733455e-01 -4.388128159e-01 7.396733455e-01 -4.388128159e-01 0.000000000e+00 0.000000000e+00
4.812722e+09 0.000000000e+00 0.000000000e+00 7.342624783e-01 -4.417251309e-01 7.342624783e-01 -4.417251309e-01 0.000000000e+00 0.000000000e+00
4.879426e+09 0.000000000e+00 0.000000000e+00 7.288563261e-01 -4.445500894e-01 7.288563261e-01 -4.445500894e-01 0.000000000e+00 0.000000000e+00
4.946131e+09 0.000000000e+00 0.000000000e+00 7.234564171e-01 -4.472887542e-01 7.234564171e-01 -4.472887542e-01 0.000000000e+00 0.000000000e+00
5.012835e+09 0.000000000e+00 0.000000000e+00 7.180642310e-01 -4.499422087e-01 7.180642310e-01 -4.499422087e-01 0.000000000e+00 0.000000000e+00
5.079540e+09 0.000000000e+00 0.000000000e+00 7.126811993e-01 -4.525115551e-01 7.126811993e-01 -4.525115551e-01 0.000000000e+00 0.000000000e+00
5.146244e+09 0.000000000e+00 0.000000000e+00 7.073087061e-01 -4.549979125e-01 7.073087061e-01 -4.549979125e-01 0.000000000e+00 0.000000000e+00
5.212949e+09 0.000000000e+00 0.000000000e+00 7.019480879e-01 -4.574024156e-01 7.019480879e-01 -4.574024156e-01 0.000000000e+00 0.000000000e+00
5.279653e+09 0.000000000e+00 0.000000000e+00 6.966006345e-01 -4.597262126e-01 6.966006345e-01 -4.597262126e-01 0.000000000e+00 0.000000000e+00
5.346358e+09 0.000000000e+00 0.000000000e+00 6.912675892e-01 -4.619704637e-01 6.912675892e-01 -4.619704637e-01 0.000000000e+00 0.000000000e+00
5.413062e+09 0.000000000e+00 0.000000000e+00 6.859501497e-01 -4.641363397e-01 6.859501497e-01 -4.641363397e-01 0.000000000e+00 0.000000000e+00
5.479767e+09 0.000000000e+00 0.000000000e+00 6.806494684e-01 -4.662250203e-01 6.806494684e-01 -4.662250203e-01 0.000000000e+00 0.000000000e+00
5.546471e+09 0.000000000e+00 0.000000000e+00 6.753666531e-01 -4.682376928e-01 6.753666531e-01 -4.682376928e-01 0.000000000e+00 0.000000000e+00
5.613175e+09 0.000000000e+00 0.000000000e+00 6.701027677e-01 -4.701755506e-01 6.701027677e-01 -4.701755506e-01 0.000000000e+00 0.000000000e+00
5.679880e+09 0.000000000e+00 0.000000000e+00 6.648588331e-01 -4.720397919e-01 6.648588331e-01 -4.720397919e-01 0.000000000e+00 0.000000000e+00
5.746584e+09 0.000000000e+00 0.000000000e+00 6.596358273e-01 -4.738316185e-01 6.596358273e-01 -4.738316185e-01 0.000000000e+00 0.000000000e+00
5.813289e+09 0.000000000e+00 0.000000000e+00 6.544346868e-01 -4.755522343e-01 6.544346868e-01 -4.755522343e-01 0.000000000e+00 0.000000000e+00
5.879993e+09 0.000000000e+00 0.000000000e+00 6.492563073e-01 -4.772028444e-01 6.492563073e-01 -4.772028444e-01 0.000000000e+00 0.000000000e+00
5.946698e+09 0.000000000e+00 0.000000000e+00 6.441015439e-01 -4.787846541e-01 6.441015439e-01 -4.787846541e-01 0.000000000e+00 0.000000000e+00
6.013402e+09 0.000000000e+00 0.000000000e+00 6.389712126e-01 -4.802988674e-01 6.389712126e-01 -4.802988674e-01 0.000000000e+00 0.000000000e+00
6.080107e+09 0.000000000e+00 0.000000000e+00 6.338660909e-01 -4.817466863e-01 6.338660909e-01 -4.817466863e-01 0.000000000e+00 0.000000000e+00
6.146811e+09 0.000000000e+00 0.000000000e+00 6.287869182e-01 -4.831293095e-01 6.287869182e-01 -4.831293095e-01 0.000000000e+00 0.000000000e+00
6.213516e+09 0.000000000e+00 0.000000000e+00 6.237343974e-01 -4.844479321e-01 6.237343974e-01 -4.844479321e-01 0.000000000e+00 0.000000000e+00
6.280220e+09 0.000000000e+00 0.000000000e+00 6.187091952e-01 -4.857037441e-01 6.187091952e-01 -4.857037441e-01 0.000000000e+00 0.000000000e+00
6.346925e+09 0.000000000e+00 0.000000000e+00 6.137119430e-01 -4.868979298e-01 6.137119430e-01 -4.868979298e-01 0.000000000e+00 0.000000000e+00
6.413629e+09 0.000000000e+00 0.000000000e+00 6.087432381e-01 -4.880316672e-01 6.087432381e-01 -4.880316672e-01 0.000000000e+00 0.000000000e+00
6.480334e+09 0.000000000e+00 0.000000000e+00 6.038036441e-01 -4.891061270e-01 6.038036441e-01 -4.891061270e-01 0.000000000e+00 0.000000000e+00
6.547038e+09 0.000000000e+00 0.000000000e+00 5.988936923e-01 -4.901224721e-01 5.988936923e-01 -4.901224721e-01 0.000000000e+00 0.000000000e+00
6.613742e+09 0.000000000e+00 0.000000000e+00 5.940138820e-01 -4.910818567e-01 5.940138820e-01 -4.910818567e-01 0.000000000e+00 0.000000000e+00
6.680447e+09 0.000000000e+00 0.000000000e+00 5.891646817e-01 -4.919854262e-01 5.891646817e-01 -4.919854262e-01 0.000000000e+00 0.000000000e+00
6.747151e+09 0.000000000e+00 0.000000000e+00 5.843465298e-01 -4.928343159e-01 5.843465298e-01 -4.928343159e-01 0.000000000e+00 0.000000000e+00
6.813856e+09 0.000000000e+00 0.000000000e+00 5.795598359e-01 -4.936296512e-01 5.795598359e-01 -4.936296512e-01 0.000000000e+00 0.000000000e+00
6.880560e+09 0.000000000e+00 0.000000000e+00 5.748049807e-01 -4.943725466e-01 5.748049807e-01 -4.943725466e-01 0.000000000e+00 0.000000000e+00
6.947265e+09 0.000000000e+00 0.000000000e+00 5.700823180e-01 -4.950641057e-01 5.700823180e-01 -4.950641057e-01 0.000000000e+00 0.000000000e+00
7.013969e+09 0.000000000e+00 0.000000000e+00 5.653921744e-01 -4.957054201e-01 5.653921744e-01 -4.957054201e-01 0.000000000e+00 0.000000000e+00
7.080674e+09 0.000000000e+00 0.000000000e+00 5.607348511e-01 -4.962975699e-01 5.607348511e-01 -4.962975699e-01 0.000000000e+00 0.000000000e+00
7.147378e+09 0.000000000e+00 0.000000000e+00 5.561106241e-01 -4.968416225e-01 5.561106241e-01 -4.968416225e-01 0.000000000e+00 0.000000000e+00
7.214083e+09 0.000000000e+00 0.000000000e+00 5.515197451e-01 -4.973386330e-01 5.515197451e-01 -4.973386330e-01 0.000000000e+00 0.000000000e+00
7.280787e+09 0.000000000e+00 0.000000000e+00 5.469624426e-01 -4.977896433e-01 5.469624426e-01 -4.977896433e-01 0.000000000e+00 0.000000000e+00
7.347492e+09 0.000000000e+00 0.000000000e+00 5.424389223e-01 -4.981956823e-01 5.424389223e-01 -4.981956823e-01 0.000000000e+00 0.000000000e+00
7.414196e+09 0.000000000e+00 0.000000000e+00 5.379493681e-01 -4.985577654e-01 5.379493681e-01 -4.985577654e-01 0.000000000e+00 0.000000000e+00
7.480901e+09 0.000000000e+00 0.000000000e+00 5.334939426e-01 -4.988768944e-01 5.334939426e-01 -4.988768944e-01 0.000000000e+00 0.000000000e+00
7.547605e+09 0.000000000e+00 0.000000000e+00 5.290727882e-01 -4.991540574e-01 5.290727882e-01 -4.991540574e-01 0.000000000e+00 0.000000000e+00
7.614310e+09 0.000000000e+00 0.000000000e+00 5.246860277e-01 -4.993902282e-01 5.246860277e-01 -4.993902282e-01 0.000000000e+00 0.000000000e+00
7.681014e+09 0.000000000e+00 0.000000000e+00 5.203337646e-01 -4.995863669e-01 5.203337646e-01 -4.995863669e-01 0.000000000e+00 0.000000000e+00
7.747718e+09 0.000000000e+00 0.000000000e+00 5.160160845e-01 -4.997434192e-01 5.160160845e-01 -4.997434192e-01 0.000000000e+00 0.000000000e+00
7.814423e+09 0.000000000e+00 0.000000000e+00 5.117330554e-01 -4.998623165e-01 5.117330554e-01 -4.998623165e-01 0.000000000e+00 0.000000000e+00
7.881127e+09 0.000000000e+00 0.000000000e+00 5.074847282e-01 -4.999439757e-01 5.074847282e-01 -4.999439757e-01 0.000000000e+00 0.000000000e+00
7.947832e+09 0.000000000e+00 0.000000000e+00 5.032711377e-01 -4.999892995e-01 5.032711377e-01 -4.999892995e-01 0.000000000e+00 0.000000000e+00
8.014536e+09 0.000000000e+00 0.000000000e+00 4.990923031e-01 -4.999991761e-01 4.990923031e-01 -4.999991761e-01 0.000000000e+00 0.000000000e+00
8.081241e+09 0.000000000e+00 0.000000000e+00 4.949482285e-01 -4.999744790e-01 4.949482285e-01 -4.999744790e-01 0.000000000e+00 0.000000000e+00
8.147945e+09 0.000000000e+00 0.000000000e+00 4.908389039e-01 -4.999160673e-01 4.908389039e-01 -4.999160673e-01 0.000000000e+00 0.000000000e+00
8.214650e+09 0.000000000e+00 0.000000000e+00 4.867643051e-01 -4.998247857e-01 4.867643051e-01 -4.998247857e-01 0.000000000e+00 0.000000000e+00
8.281354e+09 0.000000000e+00 0.000000000e+00 4.827243952e-01 -4.997014644e-01 4.827243952e-01 -4.997014644e-01 0.000000000e+00 0.000000000e+00
8.348059e+09 0.000000000e+00 0.000000000e+00 4.787191242e-01 -4.995469190e-01 4.787191242e-01 -4.995469190e-01 0.000000000e+00 0.000000000e+00
8.414763e+09 0.000000000e+00 0.000000000e+00 4.747484303e-01 -4.993619511e-01 4.747484303e-01 -4.993619511e-01 0.000000000e+00 0.000000000e+00
8.481468e+09 0.000000000e+00 0.000000000e+00 4.708122401e-01 -4.991473477e-01 4.708122401e-01 -4.991473477e-01 0.000000000e+00 0.000000000e+00
8.548172e+09 0.000000000e+00 0.000000000e+00 4.669104691e-01 -4.989038815e-01 4.669104691e-01 -4.989038815e-01 0.000000000e+00 0.000000000e+00
8.614877e+09 0.000000000e+00 0.000000000e+00 4.630430222e-01 -4.986323112e-01 4.630430222e-01 -4.986323112e-01 0.000000000e+00 0.000000000e+00
8.681581e+09 0.000000000e+00 0.000000000e+00 4.592097945e-01 -4.983333815e-01 4.592097945e-01 -4.983333815e-01 0.000000000e+00 0.000000000e+00
8.748286e+09 0.000000000e+00 0.000000000e+00 4.554106714e-01 -4.980078230e-01 4.554106714e-01 -4.980078230e-01 0.000000000e+00 0.000000000e+00
8.814990e+09 0.000000000e+00 0.000000000e+00 4.516455291e-01 -4.976563525e-01 4.516455291e-01 -4.976563525e-01 0.000000000e+00 0.000000000e+00
8.881694e+09 0.000000000e+00 0.000000000e+00 4.479142353e-01 -4.972796729e-01 4.479142353e-01 -4.972796729e-01 0.000000000e+00 0.000000000e+00
8.948399e+09 0.000000000e+00 0.000000000e+00 4.442166494e-01 -4.968784739e-01 4.442166494e-01 -4.968784739e-01 0.000000000e+00 0.000000000e+00
9.015103e+09 0.000000000e+00 0.000000000e+00 4.405526229e-01 -4.964534312e-01 4.405526229e-01 -4.964534312e-01 0.000000000e+00 0.000000000e+00
9.081808e+09 0.000000000e+00 0.000000000e+00 4.369220002e-01 -4.960052076e-01 4.369220002e-01 -4.960052076e-01 0.000000000e+00 0.000000000e+00
9.148512e+09 0.000000000e+00 0.000000000e+00 4.333246184e-01 -4.955344524e-01 4.333246184e-01 -4.955344524e-01 0.000000000e+00 0.000000000e+00
9.215217e+09 0.000000000e+00 0.000000000e+00 4.297603081e-01 -4.950418019e-01 4.297603081e-01 -4.950418019e-01 0.000000000e+00 0.000000000e+00
9.281921e+09 0.000000000e+00 0.000000000e+00 4.262288936e-01 -4.945278798e-01 4.262288936e-01 -4.945278798e-01 0.000000000e+00 0.000000000e+00
9.348626e+09 0.000000000e+00 0.000000000e+00 4.227301935e-01 -4.939932965e-01 4.227301935e-01 -4.939932965e-01 0.000000000e+00 0.000000000e+00
9.415330e+09 0.000000000e+00 0.000000000e+00 4.192640205e-01 -4.934386503e-01 4.192640205e-01 -4.934386503e-01 0.000000000e+00 0.000000000e+00
9.482035e+09 0.000000000e+00 0.000000000e+00 4.158301824e-01 -4.928645268e-01 4.158301824e-01 -4.928645268e-01 0.000000000e+00 0.000000000e+00
9.548739e+09 0.000000000e+00 0.000000000e+00 4.124284819e-01 -4.922714995e-01 4.124284819e-01 -4.922714995e-01 0.000000000e+00 0.000000000e+00
9.615444e+09 0.000000000e+00 0.000000000e+00 4.090587173e-01 -4.916601297e-01 4.090587173e-01 -4.916601297e-01 0.000000000e+00 0.000000000e+00
9.682148e+09 0.000000000e+00 0.000000000e+00 4.057206824e-01 -4.910309667e-01 4.057206824e-01 -4.910309667e-01 0.000000000e+00 0.000000000e+00
9.748853e+09 0.000000000e+00 0.000000000e+00 4.024141671e-01 -4.903845483e-01 4.024141671e-01 -4.903845483e-01 0.000000000e+00 0.000000000e+00
9.815557e+09 0.000000000e+00 0.000000000e+00 3.991389576e-01 -4.897214005e-01 3.991389576e-01 -4.897214005e-01 0.000000000e+00 0.000000000e+00
9.882262e+09 0.000000000e+00 0.000000000e+00 3.958948365e-01 -4.890420380e-01 3.958948365e-01 -4.890420380e-01 0.000000000e+00 0.000000000e+00
9.948966e+09 0.000000000e+00 0.000000000e+00 3.926815835e-01 -4.883469642e-01 3.926815835e-01 -4.883469642e-01 0.000000000e+00 0.000000000e+00
1.001567e+10 0.000000000e+00 0.000000000e+00 3.894989750e-01 -4.876366716e-01 3.894989750e-01 -4.876366716e-01 0.000000000e+00 0.000000000e+00
1.008237e+10 0.000000000e+00 0.000000000e+00 3.863467848e-01 -4.869116416e-01 3.863467848e-01 -4.869116416e-01 0.000000000e+00 0.000000000e+00
1.014908e+10 0.000000000e+00 0.000000000e+00 3.832247844e-01 -4.861723450e-01 3.832247844e-01 -4.861723450e-01 0.000000000e+00 0.000000000e+00
1.021578e+10 0.000000000e+00 0.000000000e+00 3.801327428e-01 -4.854192422e-01 3.801327428e-01 -4.854192422e-01 0.000000000e+00 0.000000000e+00
1.028249e+10 0.000000000e+00 0.000000000e+00 3.770704271e-01 -4.846527830e-01 3.770704271e-01 -4.846527830e-01 0.000000000e+00 0.000000000e+00
1.034919e+10 0.000000000e+00 0.000000000e+00 3.740376023e-01 -4.838734074e-01 3.740376023e-01 -4.838734074e-01 0.000000000e+00 0.000000000e+00
1.041590e+10 0.000000000e+00 0.000000000e+00 3.710340321e-01 -4.830815450e-01 3.710340321e-01 -4.830815450e-01 0.000000000e+00 0.000000000e+00
1.048260e+10 0.000000000e+00 0.000000000e+00 3.680594784e-01 -4.822776159e-01 3.680594784e-01 -4.822776159e-01 0.000000000e+00 0.000000000e+00
1.054931e+10 0.000000000e+00 0.000000000e+00 3.651137021e-01 -4.814620303e-01 3.651137021e-01 -4.814620303e-01 0.000000000e+00 0.000000000e+00
1.061601e+10 0.000000000e+00 0.000000000e+00 3.621964627e-01 -4.806351892e-01 3.621964627e-01 -4.806351892e-01 0.000000000e+00 0.000000000e+00
1.068272e+10 0.000000000e+00 0.000000000e+00 3.593075189e-01 -4.797974841e-01 3.593075189e-01 -4.797974841e-01 0.000000000e+00 0.000000000e+00
1.074942e+10 0.000000000e+00 0.000000000e+00 3.564466285e-01 -4.789492975e-01 3.564466285e-01 -4.789492975e-01 0.000000000e+00 0.000000000e+00
1.081612e+10 0.000000000e+00 0.000000000e+00 3.536135489e-01 -4.780910028e-01 3.536135489e-01 -4.780910028e-01 0.000000000e+00 0.000000000e+00
1.088283e+10 0.000000000e+00 0.000000000e+00 3.508080367e-01 -4.772229647e-01 3.508080367e-01 -4.772229647e-01 0.000000000e+00 0.000000000e+00
1.094953e+10 0.000000000e+00 0.000000000e+00 3.480298482e-01 -4.763455395e-01 3.480298482e-01 -4.763455395e-01 0.000000000e+00 0.000000000e+00
1.101624e+10 0.000000000e+00 0.000000000e+00 3.452787396e-01 -4.754590746e-01 3.452787396e-01 -4.754590746e-01 0.000000000e+00 0.000000000e+00
1.108294e+10 0.000000000e+00 0.000000000e+00 3.425544669e-01 -4.745639094e-01 3.425544669e-01 -4.745639094e-01 0.000000000e+00 0.000000000e+00
1.114965e+10 0.000000000e+00 0.000000000e+00 3.398567860e-01 -4.736603752e-01 3.398567860e-01 -4.736603752e-01 0.000000000e+00 0.000000000e+00
1.121635e+10 0.000000000e+00 0.000000000e+00 3.371854532e-01 -4.727487952e-01 3.371854532e-01 -4.727487952e-01 0.000000000e+00 0.000000000e+00
1.128306e+10 0.000000000e+00 0.000000000e+00 3.345402247e-01 -4.718294848e-01 3.345402247e-01 -4.718294848e-01 0.000000000e+00 0.000000000e+00
1.134976e+10 0.000000000e+00 0.000000000e+00 3.319208572e-01 -4.709027519e-01 3.319208572e-01 -4.709027519e-01 0.000000000e+00 0.000000000e+00
1.141646e+10 0.000000000e+00 0.000000000e+00 3.293271079e-01 -4.699688968e-01 3.293271079e-01 -4.699688968e-01 0.000000000e+00 0.000000000e+00
1.148317e+10 0.000000000e+00 0.000000000e+00 3.267587345e-01 -4.690282123e-01 3.267587345e-01 -4.690282123e-01 0.000000000e+00 0.000000000e+00
1.154987e+10 0.000000000e+00 0.000000000e+00 3.242154952e-01 -4.680809843e-01 3.242154952e-01 -4.680809843e-01 0.000000000e+00 0.000000000e+00
1.161658e+10 0.000000000e+00 0.000000000e+00 3.216971489e-01 -4.671274915e-01 3.216971489e-01 -4.671274915e-01 0.000000000e+00 0.000000000e+00
1.168328e+10 0.000000000e+00 0.000000000e+00 3.192034554e-01 -4.661680056e-01 3.192034554e-01 -4.661680056e-01 0.000000000e+00 0.000000000e+00
1.174999e+10 0.000000000e+00 0.000000000e+00 3.167341754e-01 -4.652027918e-01 3.167341754e-01 -4.652027918e-01 0.000000000e+00 0.000000000e+00
1.181669e+10 0.000000000e+00 0.000000000e+00 3.142890703e-01 -4.642321085e-01 3.142890703e-01 -4.642321085e-01 0.000000000e+00 0.000000000e+00
1.188340e+10 0.000000000e+00 0.000000000e+00 3.118679027e-01 -4.632562077e-01 3.118679027e-01 -4.632562077e-01 0.000000000e+00 0.000000000e+00
1.195010e+10 0.000000000e+00 0.000000000e+00 3.094704361e-01 -4.622753349e-01 3.094704361e-01 -4.622753349e-01 0.000000000e+00 0.000000000e+00
1.201680e+10 0.000000000e+00 0.000000000e+00 3.070964354e-01 -4.612897297e-01 3.070964354e-01 -4.612897297e-01 0.000000000e+00 0.000000000e+00
1.208351e+10 0.000000000e+00 0.000000000e+00 3.047456663e-01 -4.602996254e-01 3.047456663e-01 -4.602996254e-01 0.000000000e+00 0.000000000e+00
1.215021e+10 0.000000000e+00 0.000000000e+00 3.024178960e-01 -4.593052495e-01 3.024178960e-01 -4.593052495e-01 0.000000000e+00 0.000000000e+00
1.221692e+10 0.000000000e+00 0.000000000e+00 3.001128930e-01 -4.583068235e-01 3.001128930e-01 -4.583068235e-01 0.000000000e+00 0.000000000e+00
1.228362e+10 0.000000000e+00 0.000000000e+00 2.978304268e-01 -4.573045634e-01 2.978304268e-01 -4.573045634e-01 0.000000000e+00 0.000000000e+00
1.235033e+10 0.000000000e+00 0.000000000e+00 2.955702688e-01 -4.562986796e-01 2.955702688e-01 -4.562986796e-01 0.000000000e+00 0.000000000e+00
1.241703e+10 0.000000000e+00 0.000000000e+00 2.933321913e-01 -4.552893770e-01 2.933321913e-01 -4.552893770e-01 0.000000000e+00 0.000000000e+00
1.248374e+10 0.000000000e+00 0.000000000e+00 2.911159683e-01 -4.542768554e-01 2.911159683e-01 -4.542768554e-01 0.000000000e+00 0.000000000e+00
1.255044e+10 0.000000000e+00 0.000000000e+00 2.889213755e-01 -4.532613090e-01 2.889213755e-01 -4.532613090e-01 0.000000000e+00 0.000000000e+00
1.261714e+10 0.000000000e+00 0.000000000e+00 2.867481896e-01 -4.522429274e-01 2.867481896e-01 -4.522429274e-01 0.000000000e+00 0.000000000e+00
1.268385e+10 0.000000000e+00 0.000000000e+00 2.845961894e-01 -4.512218948e-01 2.845961894e-01 -4.512218948e-01 0.000000000e+00 0.000000000e+00
1.275055e+10 0.000000000e+00 0.000000000e+00 2.824651550e-01 -4.501983909e-01 2.824651550e-01 -4.501983909e-01 0.000000000e+00 0.000000000e+00
1.281726e+10 0.000000000e+00 0.000000000e+00 2.803548680e-01 -4.491725904e-01 2.803548680e-01 -4.491725904e-01 0.000000000e+00 0.000000000e+00
1.288396e+10 0.000000000e+00 0.000000000e+00 2.782651121e-01 -4.481446636e-01 2.782651121e-01 -4.481446636e-01 0.000000000e+00 0.000000000e+00
1.295067e+10 0.000000000e+00 0.000000000e+00 2.761956721e-01 -4.471147759e-01 2.761956721e-01 -4.471147759e-01 0.000000000e+00 0.000000000e+00
1.301737e+10 0.000000000e+00 0.000000000e+00 2.741463349e-01 -4.460830886e-01 2.741463349e-01 -4.460830886e-01 0.000000000e+00 0.000000000e+00
1.308408e+10 0.000000000e+00 0.000000000e+00 2.721168889e-01 -4.450497587e-01 2.721168889e-01 -4.450497587e-01 0.000000000e+00 0.000000000e+00
1.315078e+10 0.000000000e+00 0.000000000e+00 2.701071243e-01 -4.440149386e-01 2.701071243e-01 -4.440149386e-01 0.000000000e+00 0.000000000e+00
1.321748e+10 0.000000000e+00 0.000000000e+00 2.681168330e-01 -4.429787770e-01 2.681168330e-01 -4.429787770e-01 0.000000000e+00 0.000000000e+00
1.328419e+10 0.000000000e+00 0.000000000e+00 2.661458087e-01 -4.419414183e-01 2.661458087e-01 -4.419414183e-01 0.000000000e+00 0.000000000e+00
1.335089e+10 0.000000000e+00 0.000000000e+00 2.641938467e-01 -4.409030030e-01 2.641938467e-01 -4.409030030e-01 0.000000000e+00 0.000000000e+00
1.341760e+10 0.000000000e+00 0.000000000e+00 2.622607443e-01 -4.398636679e-01 2.622607443e-01 -4.398636679e-01 0.000000000e+00 0.000000000e+00
1.348430e+10 0.000000000e+00 0.000000000e+00 2.603463004e-01 -4.388235457e-01 2.603463004e-01 -4.388235457e-01 0.000000000e+00 0.000000000e+00
1.355101e+10 0.000000000e+00 0.000000000e+00 2.584503159e-01 -4.377827659e-01 2.584503159e-01 -4.377827659e-01 0.000000000e+00 0.000000000e+00
1.361771e+10 0.000000000e+00 0.000000000e+00 2.565725932e-01 -4.367414540e-01 2.565725932e-01 -4.367414540e-01 0.000000000e+00 0.000000000e+00
1.368442e+10 0.000000000e+00 0.000000000e+00 2.547129367e-01 -4.356997321e-01 2.547129367e-01 -4.356997321e-01 0.000000000e+00 0.000000000e+00
1.375112e+10 0.000000000e+00 0.000000000e+00 2.528711526e-01 -4.346577191e-01 2.528711526e-01 -4.346577191e-01 0.000000000e+00 0.000000000e+00
1.381783e+10 0.000000000e+00 0.000000000e+00 2.510470489e-01 -4.336155303e-01 2.510470489e-01 -4.336155303e-01 0.000000000e+00 0.000000000e+00
1.388453e+10 0.000000000e+00 0.000000000e+00 2.492404353e-01 -4.325732778e-01 2.492404353e-01 -4.325732778e-01 0.000000000e+00 0.000000000e+00
1.395123e+10 0.000000000e+00 0.000000000e+00 2.474511234e-01 -4.315310707e-01 2.474511234e-01 -4.315310707e-01 0.000000000e+00 0.000000000e+00
1.401794e+10 0.000000000e+00 0.000000000e+00 2.456789268e-01 -4.304890146e-01 2.456789268e-01 -4.304890146e-01 0.000000000e+00 0.000000000e+00
1.408464e+10 0.000000000e+00 0.000000000e+00 2.439236605e-01 -4.294472125e-01 2.439236605e-01 -4.294472125e-01 0.000000000e+00 0.000000000e+00
1.415135e+10 0.000000000e+00 0.000000000e+00 2.421851416e-01 -4.284057642e-01 2.421851416e-01 -4.284057642e-01 0.000000000e+00 0.000000000e+00
1.421805e+10 0.000000000e+00 0.000000000e+00 2.404631889e-01 -4.273647666e-01 2.404631889e-01 -4.273647666e-01 0.000000000e+00 0.000000000e+00
1.428476e+10 0.000000000e+00 0.000000000e+00 2.387576232e-01 -4.263243138e-01 2.387576232e-01 -4.263243138e-01 0.000000000e+00 0.000000000e+00
1.435146e+10 0.000000000e+00 0.000000000e+00 2.370682668e-01 -4.252844973e-01 2.370682668e-01 -4.252844973e-01 0.000000000e+00 0.000000000e+00
1.441817e+10 0.000000000e+00 0.000000000e+00 2.353949439e-01 -4.242454057e-01 2.353949439e-01 -4.242454057e-01 0.000000000e+00 0.000000000e+00
1.448487e+10 0.000000000e+00 0.000000000e+00 2.337374807e-01 -4.232071252e-01 2.337374807e-01 -4.232071252e-01 0.000000000e+00 0.000000000e+00
1.455157e+10 0.000000000e+00 0.000000000e+00 2.320957048e-01 -4.221697391e-01 2.320957048e-01 -4.221697391e-01 0.000000000e+00 0.000000000e+00
1.461828e+10 0.000000000e+00 0.000000000e+00 2.304694460e-01 -4.211333286e-01 2.304694460e-01 -4.211333286e-01 0.000000000e+00 0.000000000e+00
1.468498e+10 0.000000000e+00 0.000000000e+00 2.288585355e-01 -4.200979722e-01 2.288585355e-01 -4.200979722e-01 0.000000000e+00 0.000000000e+00
1.475169e+10 0.000000000e+00 0.000000000e+00 2.272628066e-01 -4.190637461e-01 2.272628066e-01 -4.190637461e-01 0.000000000e+00 0.000000000e+00
1.481839e+10 0.000000000e+00 0.000000000e+00 2.256820939e-01 -4.180307242e-01 2.256820939e-01 -4.180307242e-01 0.000000000e+00 0.000000000e+00
1.488510e+10 0.000000000e+00 0.000000000e+00 2.241162342e-01 -4.169989781e-01 2.241162342e-01 -4.169989781e-01 0.000000000e+00 0.000000000e+00
1.495180e+10 0.000000000e+00 0.000000000e+00 2.225650658e-01 -4.159685773e-01 2.225650658e-01 -4.159685773e-01 0.000000000e+00 0.000000000e+00
1.501851e+10 0.000000000e+00 0.000000000e+00 2.210284288e-01 -4.149395889e-01 2.210284288e-01 -4.149395889e-01 0.000000000e+00 0.000000000e+00
1.508521e+10 0.000000000e+00 0.000000000e+00 2.195061650e-01 -4.139120783e-01 2.195061650e-01 -4.139120783e-01 0.000000000e+00 0.000000000e+00
1.515191e+10 0.000000000e+00 0.000000000e+00 2.179981179e-01 -4.128861083e-01 2.179981179e-01 -4.128861083e-01 0.000000000e+00 0.000000000e+00
1.521862e+10 0.000000000e+00 0.000000000e+00 2.165041326e-01 -4.118617403e-01 2.165041326e-01 -4.118617403e-01 0.000000000e+00 0.000000000e+00
1.528532e+10 0.000000000e+00 0.000000000e+00 2.150240560e-01 -4.108390334e-01 2.150240560e-01 -4.108390334e-01 0.000000000e+00 0.000000000e+00
1.535203e+10 0.000000000e+00 0.000000000e+00 2.135577368e-01 -4.098180448e-01 2.135577368e-01 -4.098180448e-01 0.000000000e+00 0.000000000e+00
1.541873e+10 0.000000000e+00 0.000000000e+00 2.121050250e-01 -4.087988299e-01 2.121050250e-01 -4.087988299e-01 0.000000000e+00 0.000000000e+00
1.548544e+10 0.000000000e+00 0.000000000e+00 2.106657725e-01 -4.077814425e-01 2.106657725e-01 -4.077814425e-01 0.000000000e+00 0.000000000e+00
1.555214e+10 0.000000000e+00 0.000000000e+00 2.092398329e-01 -4.067659342e-01 2.092398329e-01 -4.067659342e-01 0.000000000e+00 0.000000000e+00
1.561885e+10 0.000000000e+00 0.000000000e+00 2.078270612e-01 -4.057523553e-01 2.078270612e-01 -4.057523553e-01 0.000000000e+00 0.000000000e+00
1.568555e+10 0.000000000e+00 0.000000000e+00 2.064273142e-01 -4.047407543e-01 2.064273142e-01 -4.047407543e-01 0.000000000e+00 0.000000000e+00
1.575225e+10 0.000000000e+00 0.000000000e+00 2.050404502e-01 -4.037311778e-01 2.050404502e-01 -4.037311778e-01 0.000000000e+00 0.000000000e+00
1.581896e+10 0.000000000e+00 0.000000000e+00 2.036663290e-01 -4.027236713e-01 2.036663290e-01 -4.027236713e-01 0.000000000e+00 0.000000000e+00
1.588566e+10 0.000000000e+00 0.000000000e+00 2.023048122e-01 -4.017182783e-01 2.023048122e-01 -4.017182783e-01 0.000000000e+00 0.000000000e+00
1.595237e+10 0.000000000e+00 0.000000000e+00 2.009557628e-01 -4.007150411e-01 2.009557628e-01 -4.007150411e-01 0.000000000e+00 0.000000000e+00
1.601907e+10 0.000000000e+00 0.000000000e+00 1.996190454e-01 -3.997140004e-01 1.996190454e-01 -3.997140004e-01 0.000000000e+00 0.000000000e+00
1.608578e+10 0.000000000e+00 0.000000000e+00 1.982945260e-01 -3.987151953e-01 1.982945260e-01 -3.987151953e-01 0.000000000e+00 0.000000000e+00
1.615248e+10 0.000000000e+00 0.000000000e+00 1.969820724e-01 -3.977186638e-01 1.969820724e-01 -3.977186638e-01 0.000000000e+00 0.000000000e+00
1.621919e+10 0.000000000e+00 0.000000000e+00 1.956815536e-01 -3.967244424e-01 1.956815536e-01 -3.967244424e-01 0.000000000e+00 0.000000000e+00
1.628589e+10 0.000000000e+00 0.000000000e+00 1.943928403e-01 -3.957325662e-01 1.943928403e-01 -3.957325662e-01 0.000000000e+00 0.000000000e+00
1.635260e+10 0.000000000e+00 0.000000000e+00 1.931158046e-01 -3.947430691e-01 1.931158046e-01 -3.947430691e-01 0.000000000e+00 0.000000000e+00
1.641930e+10 0.000000000e+00 0.000000000e+00 1.918503200e-01 -3.937559837e-01 1.918503200e-01 -3.937559837e-01 0.000000000e+00 0.000000000e+00
1.648600e+10 0.000000000e+00 0.000000000e+00 1.905962616e-01 -3.927713414e-01 1.905962616e-01 -3.927713414e-01 0.000000000e+00 0.000000000e+00
1.655271e+10 0.000000000e+00 0.000000000e+00 1.893535058e-01 -3.917891724e-01 1.893535058e-01 -3.917891724e-01 0.000000000e+00 0.000000000e+00
1.661941e+10 0.000000000e+00 0.000000000e+00 1.881219304e-01 -3.908095057e-01 1.881219304e-01 -3.908095057e-01 0.000000000e+00 0.000000000e+00
1.668612e+10 0.000000000e+00 0.000000000e+00 1.869014149e-01 -3.898323691e-01 1.869014149e-01 -3.898323691e-01 0.000000000e+00 0.000000000e+00
1.675282e+10 0.000000000e+00 0.000000000e+00 1.856918397e-01 -3.888577894e-01 1.856918397e-01 -3.888577894e-01 0.000000000e+00 0.000000000e+00
1.681953e+10 0.000000000e+00 0.000000000e+00 1.844930870e-01 -3.878857923e-01 1.844930870e-01 -3.878857923e-01 0.000000000e+00 0.000000000e+00
1.688623e+10 0.000000000e+00 0.000000000e+00 1.833050402e-01 -3.869164024e-01 1.833050402e-01 -3.869164024e-01 0.000000000e+00 0.000000000e+00
1.695294e+10 0.000000000e+00 0.000000000e+00 1.821275840e-01 -3.859496433e-01 1.821275840e-01 -3.859496433e-01 0.000000000e+00 0.000000000e+00
1.701964e+10 0.000000000e+00 0.000000000e+00 1.809606046e-01 -3.849855376e-01 1.809606046e-01 -3.849855376e-01 0.000000000e+00 0.000000000e+00
1.708634e+10 0.000000000e+00 0.000000000e+00 1.798039894e-01 -3.840241070e-01 1.798039894e-01 -3.840241070e-01 0.000000000e+00 0.000000000e+00
1.715305e+10 0.000000000e+00 0.000000000e+00 1.786576271e-01 -3.830653722e-01 1.786576271e-01 -3.830653722e-01 0.000000000e+00 0.000000000e+00
1.721975e+10 0.000000000e+00 0.000000000e+00 1.775214077e-01 -3.821093528e-01 1.775214077e-01 -3.821093528e-01 0.000000000e+00 0.000000000e+00
1.728646e+10 0.000000000e+00 0.000000000e+00 1.763952226e-01 -3.811560678e-01 1.763952226e-01 -3.811560678e-01 0.000000000e+00 0.000000000e+00
1.735316e+10 0.000000000e+00 0.000000000e+00 1.752789643e-01 -3.802055351e-01 1.752789643e-01 -3.802055351e-01 0.000000000e+00 0.000000000e+00
1.741987e+10 0.000000000e+00 0.000000000e+00 1.741725267e-01 -3.792577720e-01 1.741725267e-01 -3.792577720e-01 0.000000000e+00 0.000000000e+00
1.748657e+10 0.000000000e+00 0.000000000e+00 1.730758048e-01 -3.783127946e-01 1.730758048e-01 -3.783127946e-01 0.000000000e+00 0.000000000e+00
1.755328e+10 0.000000000e+00 0.000000000e+00 1.719886950e-01 -3.773706186e-01 1.719886950e-01 -3.773706186e-01 0.000000000e+00 0.000000000e+00
1.761998e+10 0.000000000e+00 0.000000000e+00 1.709110947e-01 -3.764312586e-01 1.709110947e-01 -3.764312586e-01 0.000000000e+00 0.000000000e+00
1.768668e+10 0.000000000e+00 0.000000000e+00 1.698429027e-01 -3.754947285e-01 1.698429027e-01 -3.754947285e-01 0.000000000e+00 0.000000000e+00
1.775339e+10 0.000000000e+00 0.000000000e+00 1.687840190e-01 -3.745610416e-01 1.687840190e-01 -3.745610416e-01 0.000000000e+00 0.000000000e+00
1.782009e+10 0.000000000e+00 0.000000000e+00 1.677343444e-01 -3.736302104e-01 1.677343444e-01 -3.736302104e-01 0.000000000e+00 0.000000000e+00
1.788680e+10 0.000000000e+00 0.000000000e+00 1.666937814e-01 -3.727022466e-01 1.666937814e-01 -3.727022466e-01 0.000000000e+00 0.000000000e+00
1.795350e+10 0.000000000e+00 0.000000000e+00 1.656622332e-01 -3.717771613e-01 1.656622332e-01 -3.717771613e-01 0.000000000e+00 0.000000000e+00
1.802021e+10 0.000000000e+00 0.000000000e+00 1.646396044e-01 -3.708549650e-01 1.646396044e-01 -3.708549650e-01 0.000000000e+00 0.000000000e+00
1.808691e+10 0.000000000e+00 0.000000000e+00 1.636258007e-01 -3.699356675e-01 1.636258007e-01 -3.699356675e-01 0.000000000e+00 0.000000000e+00
1.815362e+10 0.000000000e+00 0.000000000e+00 1.626207288e-01 -3.690192777e-01 1.626207288e-01 -3.690192777e-01 0.000000000e+00 0.000000000e+00
1.822032e+10 0.000000000e+00 0.000000000e+00 1.616242964e-01 -3.681058044e-01 1.616242964e-01 -3.681058044e-01 0.000000000e+00 0.000000000e+00
1.828702e+10 0.000000000e+00 0.000000000e+00 1.606364126e-01 -3.671952554e-01 1.606364126e-01 -3.671952554e-01 0.000000000e+00 0.000000000e+00
1.835373e+10 0.000000000e+00 0.000000000e+00 1.596569874e-01 -3.662876380e-01 1.596569874e-01 -3.662876380e-01 0.000000000e+00 0.000000000e+00
1.842043e+10 0.000000000e+00 0.000000000e+00 1.586859318e-01 -3.653829591e-01 1.586859318e-01 -3.653829591e-01 0.000000000e+00 0.000000000e+00
1.848714e+10 0.000000000e+00 0.000000000e+00 1.577231578e-01 -3.644812249e-01 1.577231578e-01 -3.644812249e-01 0.000000000e+00 0.000000000e+00
1.855384e+10 0.000000000e+00 0.000000000e+00 1.567685787e-01 -3.635824411e-01 1.567685787e-01 -3.635824411e-01 0.000000000e+00 0.000000000e+00
1.862055e+10 0.000000000e+00 0.000000000e+00 1.558221086e-01 -3.626866128e-01 1.558221086e-01 -3.626866128e-01 0.000000000e+00 0.000000000e+00
1.868725e+10 0.000000000e+00 0.000000000e+00 1.548836627e-01 -3.617937447e-01 1.548836627e-01 -3.617937447e-01 0.000000000e+00 0.000000000e+00
1.875396e+10 0.000000000e+00 0.000000000e+00 1.539531570e-01 -3.609038410e-01 1.539531570e-01 -3.609038410e-01 0.000000000e+00 0.000000000e+00
1.882066e+10 0.000000000e+00 0.000000000e+00 1.530305088e-01 -3.600169054e-01 1.530305088e-01 -3.600169054e-01 0.000000000e+00 0.000000000e+00
1.888736e+10 0.000000000e+00 0.000000000e+00 1.521156362e-01 -3.591329411e-01 1.521156362e-01 -3.591329411e-01 0.000000000e+00 0.000000000e+00
1.895407e+10 0.000000000e+00 0.000000000e+00 1.512084582e-01 -3.582519510e-01 1.512084582e-01 -3.582519510e-01 0.000000000e+00 0.000000000e+00
1.902077e+10 0.000000000e+00 0.000000000e+00 1.503088949e-01 -3.573739373e-01 1.503088949e-01 -3.573739373e-01 0.000000000e+00 0.000000000e+00
1.908748e+10 0.000000000e+00 0.000000000e+00 1.494168673e-01 -3.564989019e-01 1.494168673e-01 -3.564989019e-01 0.000000000e+00 0.000000000e+00
1.915418e+10 0.000000000e+00 0.000000000e+00 1.485322973e-01 -3.556268465e-01 1.485322973e-01 -3.556268465e-01 0.000000000e+00 0.000000000e+00
1.922089e+10 0.000000000e+00 0.000000000e+00 1.476551076e-01 -3.547577720e-01 1.476551076e-01 -3.547577720e-01 0.000000000e+00 0.000000000e+00
1.928759e+10 0.000000000e+00 0.000000000e+00 1.467852220e-01 -3.538916792e-01 1.467852220e-01 -3.538916792e-01 0.000000000e+00 0.000000000e+00
1.935430e+10 0.000000000e+00 0.000000000e+00 1.459225651e-01 -3.530285684e-01 1.459225651e-01 -3.530285684e-01 0.000000000e+00 0.000000000e+00
1.942100e+10 0.000000000e+00 0.000000000e+00 1.450670625e-01 -3.521684396e-01 1.450670625e-01 -3.521684396e-01 0.000000000e+00 0.000000000e+00
1.948771e+10 0.000000000e+00 0.000000000e+00 1.442186404e-01 -3.513112924e-01 1.442186404e-01 -3.513112924e-01 0.000000000e+00 0.000000000e+00
1.955441e+10 0.000000000e+00 0.000000000e+00 1.433772261e-01 -3.504571260e-01 1.433772261e-01 -3.504571260e-01 0.000000000e+00 0.000000000e+00
1.962111e+10 0.000000000e+00 0.000000000e+00 1.425427478e-01 -3.496059394e-01 1.425427478e-01 -3.496059394e-01 0.000000000e+00 0.000000000e+00
1.968782e+10 0.000000000e+00 0.000000000e+00 1.417151343e-01 -3.487577311e-01 1.417151343e-01 -3.487577311e-01 0.000000000e+00 0.000000000e+00
1.975452e+10 0.000000000e+00 0.000000000e+00 1.408943154e-01 -3.479124994e-01 1.408943154e-01 -3.479124994e-01 0.000000000e+00 0.000000000e+00
1.982123e+10 0.000000000e+00 0.000000000e+00 1.400802216e-01 -3.470702424e-01 1.400802216e-01 -3.470702424e-01 0.000000000e+00 0.000000000e+00
1.988793e+10 0.000000000e+00 0.000000000e+00 1.392727845e-01 -3.462309576e-01 1.392727845e-01 -3.462309576e-01 0.000000000e+00 0.000000000e+00
1.995464e+10 0.000000000e+00 0.000000000e+00 1.384719361e-01 -3.453946424e-01 1.384719361e-01 -3.453946424e-01 0.000000000e+00 0.000000000e+00
2.002134e+10 0.000000000e+00 0.000000000e+00 1.376776094e-01 -3.445612939e-01 1.376776094e-01 -3.445612939e-01 0.000000000e+00 0.000000000e+00
2.008805e+10 0.000000000e+00 0.000000000e+00 1.368897383e-01 -3.437309090e-01 1.368897383e-01 -3.437309090e-01 0.000000000e+00 0.000000000e+00
2.015475e+10 0.000000000e+00 0.000000000e+00 1.361082572e-01 -3.429034843e-01 1.361082572e-01 -3.429034843e-01 0.000000000e+00 0.000000000e+00
2.022145e+10 0.000000000e+00 0.000000000e+00 1.353331015e-01 -3.420790159e-01 1.353331015e-01 -3.420790159e-01 0.000000000e+00 0.000000000e+00
2.028816e+10 0.000000000e+00 0.000000000e+00 1.345642072e-01 -3.412575000e-01 1.345642072e-01 -3.412575000e-01 0.000000000e+00 0.000000000e+00
2.035486e+10 0.000000000e+00 0.000000000e+00 1.338015111e-01 -3.404389324e-01 1.338015111e-01 -3.404389324e-01 0.000000000e+00 0.000000000e+00
2.042157e+10 0.000000000e+00 0.000000000e+00 1.330449507e-01 -3.396233087e-01 1.330449507e-01 -3.396233087e-01 0.000000000e+00 0.000000000e+00
2.048827e+10 0.000000000e+00 0.000000000e+00 1.322944643e-01 -3.388106241e-01 1.322944643e-01 -3.388106241e-01 0.000000000e+00 0.000000000e+00
2.055498e+10 0.000000000e+00 0.000000000e+00 1.315499909e-01 -3.380008740e-01 1.315499909e-01 -3.380008740e-01 0.000000000e+00 0.000000000e+00
2.062168e+10 0.000000000e+00 0.000000000e+00 1.308114702e-01 -3.371940531e-01 1.308114702e-01 -3.371940531e-01 0.000000000e+00 0.000000000e+00
2.068839e+10 0.000000000e+00 0.000000000e+00 1.300788424e-01 -3.363901562e-01 1.300788424e-01 -3.363901562e-01 0.000000000e+00 0.000000000e+00
2.075509e+10 0.000000000e+00 0.000000000e+00 1.293520488e-01 -3.355891778e-01 1.293520488e-01 -3.355891778e-01 0.000000000e+00 0.000000000e+00
2.082179e+10 0.000000000e+00 0.000000000e+00 1.286310311e-01 -3.347911123e-01 1.286310311e-01 -3.347911123e-01 0.000000000e+00 0.000000000e+00
2.088850e+10 0.000000000e+00 0.000000000e+00 1.279157316e-01 -3.339959538e-01 1.279157316e-01 -3.339959538e-01 0.000000000e+00 0.000000000e+00
2.095520e+10 0.000000000e+00 0.000000000e+00 1.272060934e-01 -3.332036963e-01 1.272060934e-01 -3.332036963e-01 0.000000000e+00 0.000000000e+00
2.102191e+10 0.000000000e+00 0.000000000e+00 1.265020604e-01 -3.324143335e-01 1.265020604e-01 -3.324143335e-01 0.000000000e+00 0.000000000e+00
2.108861e+10 0.000000000e+00 0.000000000e+00 1.258035769e-01 -3.316278591e-01 1.258035769e-01 -3.316278591e-01 0.000000000e+00 0.000000000e+00
2.115532e+10 0.000000000e+00 0.000000000e+00 1.251105879e-01 -3.308442666e-01 1.251105879e-01 -3.308442666e-01 0.000000000e+00 0.000000000e+00
2.122202e+10 0.000000000e+00 0.000000000e+00 1.244230392e-01 -3.300635492e-01 1.244230392e-01 -3.300635492e-01 0.000000000e+00 0.000000000e+00
2.128873e+10 0.000000000e+00 0.000000000e+00 1.237408769e-01 -3.292857001e-01 1.237408769e-01 -3.292857001e-01 0.000000000e+00 0.000000000e+00
2.135543e+10 0.000000000e+00 0.000000000e+00 1.230640480e-01 -3.285107123e-01 1.230640480e-01 -3.285107123e-01 0.000000000e+00 0.000000000e+00
2.142213e+10 0.000000000e+00 0.000000000e+00 1.223925001e-01 -3.277385788e-01 1.223925001e-01 -3.277385788e-01 0.000000000e+00 0.000000000e+00
2.148884e+10 0.000000000e+00 0.000000000e+00 1.217261812e-01 -3.269692921e-01 1.217261812e-01 -3.269692921e-01 0.000000000e+00 0.000000000e+00
2.155554e+10 0.000000000e+00 0.000000000e+00 1.210650400e-01 -3.262028450e-01 1.210650400e-01 -3.262028450e-01 0.000000000e+00 0.000000000e+00
2.162225e+10 0.000000000e+00 0.000000000e+00 1.204090259e-01 -3.254392299e-01 1.204090259e-01 -3.254392299e-01 0.000000000e+00 0.000000000e+00
2.168895e+10 0.000000000e+00 0.000000000e+00 1.197580887e-01 -3.246784392e-01 1.197580887e-01 -3.246784392e-01 0.000000000e+00 0.000000000e+00
2.175566e+10 0.000000000e+00 0.000000000e+00 1.191121789e-01 -3.239204651e-01 1.191121789e-01 -3.239204651e-01 0.000000000e+00 0.000000000e+00
2.182236e+10 0.000000000e+00 0.000000000e+00 1.184712475e-01 -3.231652998e-01 1.184712475e-01 -3.231652998e-01 0.000000000e+00 0.000000000e+00
2.188907e+10 0.000000000e+00 0.000000000e+00 1.178352460e-01 -3.224129352e-01 1.178352460e-01 -3.224129352e-01 0.000000000e+00 0.000000000e+00
2.195577e+10 0.000000000e+00 0.000000000e+00 1.172041266e-01 -3.216633633e-01 1.172041266e-01 -3.216633633e-01 0.000000000e+00 0.000000000e+00
2.202247e+10 0.000000000e+00 0.000000000e+00 1.165778419e-01 -3.209165759e-01 1.165778419e-01 -3.209165759e-01 0.000000000e+00 0.000000000e+00
2.208918e+10 0.000000000e+00 0.000000000e+00 1.159563452e-01 -3.201725647e-01 1.159563452e-01 -3.201725647e-01 0.000000000e+00 0.000000000e+00
2.215588e+10 0.000000000e+00 0.000000000e+00 1.153395902e-01 -3.194313214e-01 1.153395902e-01 -3.194313214e-01 0.000000000e+00 0.000000000e+00
2.222259e+10 0.000000000e+00 0.000000000e+00 1.147275311e-01 -3.186928375e-01 1.147275311e-01 -3.186928375e-01 0.000000000e+00 0.000000000e+00
2.228929e+10 0.000000000e+00 0.000000000e+00 1.141201227e-01 -3.179571045e-01 1.141201227e-01 -3.179571045e-01 0.000000000e+00 0.000000000e+00
2.235600e+10 0.000000000e+00 0.000000000e+00 1.135173203e-01 -3.172241136e-01 1.135173203e-01 -3.172241136e-01 0.000000000e+00 0.000000000e+00
2.242270e+10 0.000000000e+00 0.000000000e+00 1.129190797e-01 -3.164938563e-01 1.129190797e-01 -3.164938563e-01 0.000000000e+00 0.000000000e+00
2.248941e+10 0.000000000e+00 0.000000000e+00 1.123253571e-01 -3.157663238e-01 1.123253571e-01 -3.157663238e-01 0.000000000e+00 0.000000000e+00
2.255611e+10 0.000000000e+00 0.000000000e+00 1.117361094e-01 -3.150415072e-01 1.117361094e-01 -3.150415072e-01 0.000000000e+00 0.000000000e+00
2.262282e+10 0.000000000e+00 0.000000000e+00 1.111512938e-01 -3.143193976e-01 1.111512938e-01 -3.143193976e-01 0.000000000e+00 0.000000000e+00
2.268952e+10 0.000000000e+00 0.000000000e+00 1.105708681e-01 -3.135999860e-01 1.105708681e-01 -3.135999860e-01 0.000000000e+00 0.000000000e+00
2.275622e+10 0.000000000e+00 0.000000000e+00 1.099947905e-01 -3.128832635e-01 1.099947905e-01 -3.128832635e-01 0.000000000e+00 0.000000000e+00
2.282293e+10 0.000000000e+00 0.000000000e+00 1.094230196e-01 -3.121692208e-01 1.094230196e-01 -3.121692208e-01 0.000000000e+00 0.000000000e+00
2.288963e+10 0.000000000e+00 0.000000000e+00 1.088555147e-01 -3.114578488e-01 1.088555147e-01 -3.114578488e-01 0.000000000e+00 0.000000000e+00
2.295634e+10 0.000000000e+00 0.000000000e+00 1.082922353e-01 -3.107491384e-01 1.082922353e-01 -3.107491384e-01 0.000000000e+00 0.000000000e+00
2.302304e+10 0.000000000e+00 0.000000000e+00 1.077331414e-01 -3.100430803e-01 1.077331414e-01 -3.100430803e-01 0.000000000e+00 0.000000000e+00
2.308975e+10 0.000000000e+00 0.000000000e+00 1.071781937e-01 -3.093396652e-01 1.071781937e-01 -3.093396652e-01 0.000000000e+00 0.000000000e+00
2.315645e+10 0.000000000e+00 0.000000000e+00 1.066273529e-01 -3.086388837e-01 1.066273529e-01 -3.086388837e-01 0.000000000e+00 0.000000000e+00
2.322316e+10 0.000000000e+00 0.000000000e+00 1.060805806e-01 -3.079407264e-01 1.060805806e-01 -3.079407264e-01 0.000000000e+00 0.000000000e+00
2.328986e+10 0.000000000e+00 0.000000000e+00 1.055378384e-01 -3.072451840e-01 1.055378384e-01 -3.072451840e-01 0.000000000e+00 0.000000000e+00
2.335656e+10 0.000000000e+00 0.000000000e+00 1.049990887e-01 -3.065522469e-01 1.049990887e-01 -3.065522469e-01 0.000000000e+00 0.000000000e+00
2.342327e+10 0.000000000e+00 0.000000000e+00 1.044642941e-01 -3.058619057e-01 1.044642941e-01 -3.058619057e-01 0.000000000e+00 0.000000000e+00
2.348997e+10 0.000000000e+00 0.000000000e+00 1.039334176e-01 -3.051741508e-01 1.039334176e-01 -3.051741508e-01 0.000000000e+00 0.000000000e+00
2.355668e+10 0.000000000e+00 0.000000000e+00 1.034064227e-01 -3.044889727e-01 1.034064227e-01 -3.044889727e-01 0.000000000e+00 0.000000000e+00
2.362338e+10 0.000000000e+00 0.000000000e+00 1.028832733e-01 -3.038063617e-01 1.028832733e-01 -3.038063617e-01 0.000000000e+00 0.000000000e+00
2.369009e+10 0.000000000e+00 0.000000000e+00 1.023639337e-01 -3.031263082e-01 1.023639337e-01 -3.031263082e-01 0.000000000e+00 0.000000000e+00
2.375679e+10 0.000000000e+00 0.000000000e+00 1.018483684e-01 -3.024488027e-01 1.018483684e-01 -3.024488027e-01 0.000000000e+00 0.000000000e+00
2.382350e+10 0.000000000e+00 0.000000000e+00 1.013365426e-01 -3.017738354e-01 1.013365426e-01 -3.017738354e-01 0.000000000e+00 0.000000000e+00
2.389020e+10 0.000000000e+00 0.000000000e+00 1.008284217e-01 -3.011013967e-01 1.008284217e-01 -3.011013967e-01 0.000000000e+00 0.000000000e+00
2.395690e+10 0.000000000e+00 0.000000000e+00 1.003239715e-01 -3.004314767e-01 1.003239715e-01 -3.004314767e-01 0.000000000e+00 0.000000000e+00
2.402361e+10 0.000000000e+00 0.000000000e+00 9.982315815e-02 -2.997640660e-01 9.982315815e-02 -2.997640660e-01 0.000000000e+00 0.000000000e+00
2.409031e+10 0.000000000e+00 0.000000000e+00 9.932594826e-02 -2.990991546e-01 9.932594826e-02 -2.990991546e-01 0.000000000e+00 0.000000000e+00
2.415702e+10 0.000000000e+00 0.000000000e+00 9.883230874e-02 -2.984367328e-01 9.883230874e-02 -2.984367328e-01 0.000000000e+00 0.000000000e+00
2.422372e+10 0.000000000e+00 0.000000000e+00 9.834220687e-02 -2.977767909e-01 9.834220687e-02 -2.977767909e-01 0.000000000e+00 0.000000000e+00
2.429043e+10 0.000000000e+00 0.000000000e+00 9.785561028e-02 -2.971193192e-01 9.785561028e-02 -2.971193192e-01 0.000000000e+00 0.000000000e+00
2.435713e+10 0.000000000e+00 0.000000000e+00 9.737248696e-02 -2.964643077e-01 9.737248696e-02 -2.964643077e-01 0.000000000e+00 0.000000000e+00
2.442384e+10 0.000000000e+00 0.000000000e+00 9.689280525e-02 -2.958117468e-01 9.689280525e-02 -2.958117468e-01 0.000000000e+00 0.000000000e+00
2.449054e+10 0.000000000e+00 0.000000000e+00 9.641653382e-02 -2.951616266e-01 9.641653382e-02 -2.951616266e-01 0.000000000e+00 0.000000000e+00
2.455724e+10 0.000000000e+00 0.000000000e+00 9.594364170e-02 -2.945139374e-01 9.594364170e-02 -2.945139374e-01 0.000000000e+00 0.000000000e+00
2.462395e+10 0.000000000e+00 0.000000000e+00 9.547409824e-02 -2.938686693e-01 9.547409824e-02 -2.938686693e-01 0.000000000e+00 0.000000000e+00
2.469065e+10 0.000000000e+00 0.000000000e+00 9.500787313e-02 -2.932258126e-01 9.500787313e-02 -2.932258126e-01 0.000000000e+00 0.000000000e+00
2.475736e+10 0.000000000e+00 0.000000000e+00 9.454493637e-02 -2.925853574e-01 9.454493637e-02 -2.925853574e-01 0.000000000e+00 0.000000000e+00
2.482406e+10 0.000000000e+00 0.000000000e+00 9.408525830e-02 -2.919472940e-01 9.408525830e-02 -2.919472940e-01 0.000000000e+00 0.000000000e+00
2.489077e+10 0.000000000e+00 0.000000000e+00 9.362880957e-02 -2.913116125e-01 9.362880957e-02 -2.913116125e-01 0.000000000e+00 0.000000000e+00
2.495747e+10 0.000000000e+00 0.000000000e+00 9.317556115e-02 -2.906783032e-01 9.317556115e-02 -2.906783032e-01 0.000000000e+00 0.000000000e+00
2.502418e+10 0.000000000e+00 0.000000000e+00 9.272548432e-02 -2.900473563e-01 9.272548432e-02 -2.900473563e-01 0.000000000e+00 0.000000000e+00
2.509088e+10 0.000000000e+00 0.000000000e+00 9.227855066e-02 -2.894187619e-01 9.227855066e-02 -2.894187619e-01 0.000000000e+00 0.000000000e+00
2.515759e+10 0.000000000e+00 0.000000000e+00 9.183473206e-02 -2.887925104e-01 9.183473206e-02 -2.887925104e-01 0.000000000e+00 0.000000000e+00
2.522429e+10 0.000000000e+00 0.000000000e+00 9.139400072e-02 -2.881685919e-01 9.139400072e-02 -2.881685919e-01 0.000000000e+00 0.000000000e+00
2.529099e+10 0.000000000e+00 0.000000000e+00 9.095632912e-02 -2.875469967e-01 9.095632912e-02 -2.875469967e-01 0.000000000e+00 0.000000000e+00
2.535770e+10 0.000000000e+00 0.000000000e+00 9.052169003e-02 -2.869277151e-01 9.052169003e-02 -2.869277151e-01 0.000000000e+00 0.000000000e+00
2.542440e+10 0.000000000e+00 0.000000000e+00 9.009005653e-02 -2.863107372e-01 9.009005653e-02 -2.863107372e-01 0.000000000e+00 0.000000000e+00
2.549111e+10 0.000000000e+00 0.000000000e+00 8.966140197e-02 -2.856960535e-01 8.966140197e-02 -2.856960535e-01 0.000000000e+00 0.000000000e+00
2.555781e+10 0.000000000e+00 0.000000000e+00 8.923569999e-02 -2.850836541e-01 8.923569999e-02 -2.850836541e-01 0.000000000e+00 0.000000000e+00
2.562452e+10 0.000000000e+00 0.000000000e+00 8.881292450e-02 -2.844735294e-01 8.881292450e-02 -2.844735294e-01 0.000000000e+00 0.000000000e+00
2.569122e+10 0.000000000e+00 0.000000000e+00 8.839304968e-02 -2.838656697e-01 8.839304968e-02 -2.838656697e-01 0.000000000e+00 0.000000000e+00
2.575793e+10 0.000000000e+00 0.000000000e+00 8.797605002e-02 -2.832600654e-01 8.797605002e-02 -2.832600654e-01 0.000000000e+00 0.000000000e+00
2.582463e+10 0.000000000e+00 0.000000000e+00 8.756190022e-02 -2.826567067e-01 8.756190022e-02 -2.826567067e-01 0.000000000e+00 0.000000000e+00
2.589133e+10 0.000000000e+00 0.000000000e+00 8.715057530e-02 -2.820555841e-01 8.715057530e-02 -2.820555841e-01 0.000000000e+00 0.000000000e+00
2.595804e+10 0.000000000e+00 0.000000000e+00 8.674205052e-02 -2.814566879e-01 8.674205052e-02 -2.814566879e-01 0.000000000e+00 0.000000000e+00
2.602474e+10 0.000000000e+00 0.000000000e+00 8.633630138e-02 -2.808600086e-01 8.633630138e-02 -2.808600086e-01 0.000000000e+00 0.000000000e+00
2.609145e+10 0.000000000e+00 0.000000000e+00 8.593330367e-02 -2.802655366e-01 8.593330367e-02 -2.802655366e-01 0.000000000e+00 0.000000000e+00
2.615815e+10 0.000000000e+00 0.000000000e+00 8.553303342e-02 -2.796732622e-01 8.553303342e-02 -2.796732622e-01 0.000000000e+00 0.000000000e+00
2.622486e+10 0.000000000e+00 0.000000000e+00 8.513546691e-02 -2.790831761e-01 8.513546691e-02 -2.790831761e-01 0.000000000e+00 0.000000000e+00
2.629156e+10 0.000000000e+00 0.000000000e+00 8.474058066e-02 -2.784952686e-01 8.474058066e-02 -2.784952686e-01 0.000000000e+00 0.000000000e+00
2.635827e+10 0.000000000e+00 0.000000000e+00 8.434835144e-02 -2.779095303e-01 8.434835144e-02 -2.779095303e-01 0.000000000e+00 0.000000000e+00
2.642497e+10 0.000000000e+00 0.000000000e+00 8.395875627e-02 -2.773259518e-01 8.395875627e-02 -2.773259518e-01 0.000000000e+00 0.000000000e+00
2.649167e+10 0.000000000e+00 0.000000000e+00 8.357177240e-02 -2.767445234e-01 8.357177240e-02 -2.767445234e-01 0.000000000e+00 0.000000000e+00
2.655838e+10 0.000000000e+00 0.000000000e+00 8.318737731e-02 -2.761652360e-01 8.318737731e-02 -2.761652360e-01 0.000000000e+00 0.000000000e+00
2.662508e+10 0.000000000e+00 0.000000000e+00 8.280554872e-02 -2.755880800e-01 8.280554872e-02 -2.755880800e-01 0.000000000e+00 0.000000000e+00
2.669179e+10 0.000000000e+00 0.000000000e+00 8.242626459e-02 -2.750130460e-01 8.242626459e-02 -2.750130460e-01 0.000000000e+00 0.000000000e+00
2.675849e+10 0.000000000e+00 0.000000000e+00 8.204950308e-02 -2.744401248e-01 8.204950308e-02 -2.744401248e-01 0.000000000e+00 0.000000000e+00
2.682520e+10 0.000000000e+00 0.000000000e+00 8.167524261e-02 -2.738693071e-01 8.167524261e-02 -2.738693071e-01 0.000000000e+00 0.000000000e+00
2.689190e+10 0.000000000e+00 0.000000000e+00 8.130346180e-02 -2.733005834e-01 8.130346180e-02 -2.733005834e-01 0.000000000e+00 0.000000000e+00
2.695861e+10 0.000000000e+00 0.000000000e+00 8.093413948e-02 -2.727339446e-01 8.093413948e-02 -2.727339446e-01 0.000000000e+00 0.000000000e+00
2.702531e+10 0.000000000e+00 0.000000000e+00 8.056725473e-02 -2.721693814e-01 8.056725473e-02 -2.721693814e-01 0.000000000e+00 0.000000000e+00
2.709201e+10 0.000000000e+00 0.000000000e+00 8.020278681e-02 -2.716068847e-01 8.020278681e-02 -2.716068847e-01 0.000000000e+00 0.000000000e+00
2.715872e+10 0.000000000e+00 0.000000000e+00 7.984071521e-02 -2.710464451e-01 7.984071521e-02 -2.710464451e-01 0.000000000e+00 0.000000000e+00
2.722542e+10 0.000000000e+00 0.000000000e+00 7.948101964e-02 -2.704880536e-01 7.948101964e-02 -2.704880536e-01 0.000000000e+00 0.000000000e+00
2.729213e+10 0.000000000e+00 0.000000000e+00 7.912367998e-02 -2.699317011e-01 7.912367998e-02 -2.699317011e-01 0.000000000e+00 0.000000000e+00
2.735883e+10 0.000000000e+00 0.000000000e+00 7.876867636e-02 -2.693773784e-01 7.876867636e-02 -2.693773784e-01 0.000000000e+00 0.000000000e+00
2.742554e+10 0.000000000e+00 0.000000000e+00 7.841598907e-02 -2.688250765e-01 7.841598907e-02 -2.688250765e-01 0.000000000e+00 0.000000000e+00
2.749224e+10 0.000000000e+00 0.000000000e+00 7.806559864e-02 -2.682747863e-01 7.806559864e-02 -2.682747863e-01 0.000000000e+00 0.000000000e+00
2.755895e+10 0.000000000e+00 0.000000000e+00 7.771748576e-02 -2.677264988e-01 7.771748576e-02 -2.677264988e-01 0.000000000e+00 0.000000000e+00
2.762565e+10 0.000000000e+00 0.000000000e+00 7.737163134e-02 -2.671802051e-01 7.737163134e-02 -2.671802051e-01 0.000000000e+00 0.000000000e+00
2.769235e+10 0.000000000e+00 0.000000000e+00 7.702801648e-02 -2.666358962e-01 7.702801648e-02 -2.666358962e-01 0.000000000e+00 0.000000000e+00
2.775906e+10 0.000000000e+00 0.000000000e+00 7.668662245e-02 -2.660935632e-01 7.668662245e-02 -2.660935632e-01 0.000000000e+00 0.000000000e+00
2.782576e+10 0.000000000e+00 0.000000000e+00 7.634743075e-02 -2.655531972e-01 7.634743075e-02 -2.655531972e-01 0.000000000e+00 0.000000000e+00
2.789247e+10 0.000000000e+00 0.000000000e+00 7.601042301e-02 -2.650147894e-01 7.601042301e-02 -2.650147894e-01 0.000000000e+00 0.000000000e+00
2.795917e+10 0.000000000e+00 0.000000000e+00 7.567558110e-02 -2.644783309e-01 7.567558110e-02 -2.644783309e-01 0.000000000e+00 0.000000000e+00
2.802588e+10 0.000000000e+00 0.000000000e+00 7.534288703e-02 -2.639438130e-01 7.534288703e-02 -2.639438130e-01 0.000000000e+00 0.000000000e+00
2.809258e+10 0.000000000e+00 0.000000000e+00 7.501232302e-02 -2.634112268e-01 7.501232302e-02 -2.634112268e-01 0.000000000e+00 0.000000000e+00
2.815929e+10 0.000000000e+00 0.000000000e+00 7.468387145e-02 -2.628805637e-01 7.468387145e-02 -2.628805637e-01 0.000000000e+00 0.000000000e+00
2.822599e+10 0.000000000e+00 0.000000000e+00 7.435751487e-02 -2.623518150e-01 7.435751487e-02 -2.623518150e-01 0.000000000e+00 0.000000000e+00
2.829270e+10 0.000000000e+00 0.000000000e+00 7.403323603e-02 -2.618249721e-01 7.403323603e-02 -2.618249721e-01 0.000000000e+00 0.000000000e+00
2.835940e+10 0.000000000e+00 0.000000000e+00 7.371101782e-02 -2.613000262e-01 7.371101782e-02 -2.613000262e-01 0.000000000e+00 0.000000000e+00
2.842610e+10 0.000000000e+00 0.000000000e+00 7.339084333e-02 -2.607769688e-01 7.339084333e-02 -2.607769688e-01 0.000000000e+00 0.000000000e+00
2.849281e+10 0.000000000e+00 0.000000000e+00 7.307269579e-02 -2.602557913e-01 7.307269579e-02 -2.602557913e-01 0.000000000e+00 0.000000000e+00
2.855951e+10 0.000000000e+00 0.000000000e+00 7.275655862e-02 -2.597364853e-01 7.275655862e-02 -2.597364853e-01 0.000000000e+00 0.000000000e+00
2.862622e+10 0.000000000e+00 0.000000000e+00 7.244241539e-02 -2.592190422e-01 7.244241539e-02 -2.592190422e-01 0.000000000e+00 0.000000000e+00
2.869292e+10 0.000000000e+00 0.000000000e+00 7.213024984e-02 -2.587034536e-01 7.213024984e-02 -2.587034536e-01 0.000000000e+00 0.000000000e+00
2.875963e+10 0.000000000e+00 0.000000000e+00 7.182004585e-02 -2.581897110e-01 7.182004585e-02 -2.581897110e-01 0.000000000e+00 0.000000000e+00
2.882633e+10 0.000000000e+00 0.000000000e+00 7.151178749e-02 -2.576778061e-01 7.151178749e-02 -2.576778061e-01 0.000000000e+00 0.000000000e+00
2.889304e+10 0.000000000e+00 0.000000000e+00 7.120545897e-02 -2.571677304e-01 7.120545897e-02 -2.571677304e-01 0.000000000e+00 0.000000000e+00
2.895974e+10 0.000000000e+00 0.000000000e+00 7.090104464e-02 -2.566594758e-01 7.090104464e-02 -2.566594758e-01 0.000000000e+00 0.000000000e+00
2.902644e+10 0.000000000e+00 0.000000000e+00 7.059852904e-02 -2.561530338e-01 7.059852904e-02 -2.561530338e-01 0.000000000e+00 0.000000000e+00
2.909315e+10 0.000000000e+00 0.000000000e+00 7.029789683e-02 -2.556483963e-01 7.029789683e-02 -2.556483963e-01 0.000000000e+00 0.000000000e+00
2.915985e+10 0.000000000e+00 0.000000000e+00 6.999913283e-02 -2.551455550e-01 6.999913283e-02 -2.551455550e-01 0.000000000e+00 0.000000000e+00
2.922656e+10 0.000000000e+00 0.000000000e+00 6.970222201e-02 -2.546445017e-01 6.970222201e-02 -2.546445017e-01 0.000000000e+00 0.000000000e+00
2.929326e+10 0.000000000e+00 0.000000000e+00 6.940714949e-02 -2.541452283e-01 6.940714949e-02 -2.541452283e-01 0.000000000e+00 0.000000000e+00
2.935997e+10 0.000000000e+00 0.000000000e+00 6.911390051e-02 -2.536477267e-01 6.911390051e-02 -2.536477267e-01 0.000000000e+00 0.000000000e+00
2.942667e+10 0.000000000e+00 0.000000000e+00 6.882246050e-02 -2.531519888e-01 6.882246050e-02 -2.531519888e-01 0.000000000e+00 0.000000000e+00
2.949338e+10 0.000000000e+00 0.000000000e+00 6.853281498e-02 -2.526580065e-01 6.853281498e-02 -2.526580065e-01 0.000000000e+00 0.000000000e+00
2.956008e+10 0.000000000e+00 0.000000000e+00 6.824494965e-02 -2.521657719e-01 6.824494965e-02 -2.521657719e-01 0.000000000e+00 0.000000000e+00
2.962678e+10 0.000000000e+00 0.000000000e+00 6.795885032e-02 -2.516752769e-01 6.795885032e-02 -2.516752769e-01 0.000000000e+00 0.000000000e+00
2.969349e+10 0.000000000e+00 0.000000000e+00 6.767450296e-02 -2.511865136e-01 6.767450296e-02 -2.511865136e-01 0.000000000e+00 0.000000000e+00
2.976019e+10 0.000000000e+00 0.000000000e+00 6.739189366e-02 -2.506994741e-01 6.739189366e-02 -2.506994741e-01 0.000000000e+00 0.000000000e+00
2.982690e+10 0.000000000e+00 0.000000000e+00 6.711100864e-02 -2.502141506e-01 6.711100864e-02 -2.502141506e-01 0.000000000e+00 0.000000000e+00
2.989360e+10 0.000000000e+00 0.000000000e+00 6.683183427e-02 -2.497305352e-01 6.683183427e-02 -2.497305352e-01 0.000000000e+00 0.000000000e+00
2.996031e+10 0.000000000e+00 0.000000000e+00 6.655435703e-02 -2.492486200e-01 6.655435703e-02 -2.492486200e-01 0.000000000e+00 0.000000000e+00
3.002701e+10 0.000000000e+00 0.000000000e+00 6.627856356e-02 -2.487683975e-01 6.627856356e-02 -2.487683975e-01 0.000000000e+00 0.000000000e+00
3.009372e+10 0.000000000e+00 0.000000000e+00 6.600444059e-02 -2.482898597e-01 6.600444059e-02 -2.482898597e-01 0.000000000e+00 0.000000000e+00
3.016042e+10 0.000000000e+00 0.000000000e+00 6.573197500e-02 -2.478129990e-01 6.573197500e-02 -2.478129990e-01 0.000000000e+00 0.000000000e+00
3.022712e+10 0.000000000e+00 0.000000000e+00 6.546115379e-02 -2.473378077e-01 6.546115379e-02 -2.473378077e-01 0.000000000e+00 0.000000000e+00
3.029383e+10 0.000000000e+00 0.000000000e+00 6.519196408e-02 -2.468642783e-01 6.519196408e-02 -2.468642783e-01 0.000000000e+00 0.000000000e+00
3.036053e+10 0.000000000e+00 0.000000000e+00 6.492439313e-02 -2.463924031e-01 6.492439313e-02 -2.463924031e-01 0.000000000e+00 0.000000000e+00
3.042724e+10 0.000000000e+00 0.000000000e+00 6.465842829e-02 -2.459221746e-01 6.465842829e-02 -2.459221746e-01 0.000000000e+00 0.000000000e+00
3.049394e+10 0.000000000e+00 0.000000000e+00 6.439405705e-02 -2.454535852e-01 6.439405705e-02 -2.454535852e-01 0.000000000e+00 0.000000000e+00
3.056065e+10 0.000000000e+00 0.000000000e+00 6.413126702e-02 -2.449866274e-01 6.413126702e-02 -2.449866274e-01 0.000000000e+00 0.000000000e+00
3.062735e+10 0.000000000e+00 0.000000000e+00 6.387004591e-02 -2.445212939e-01 6.387004591e-02 -2.445212939e-01 0.000000000e+00 0.000000000e+00
3.069406e+10 0.000000000e+00 0.000000000e+00 6.361038158e-02 -2.440575771e-01 6.361038158e-02 -2.440575771e-01 0.000000000e+00 0.000000000e+00
3.076076e+10 0.000000000e+00 0.000000000e+00 6.335226196e-02 -2.435954697e-01 6.335226196e-02 -2.435954697e-01 0.000000000e+00 0.000000000e+00
3.082746e+10 0.000000000e+00 0.000000000e+00 6.309567512e-02 -2.431349644e-01 6.309567512e-02 -2.431349644e-01 0.000000000e+00 0.000000000e+00
3.089417e+10 0.000000000e+00 0.000000000e+00 6.284060925e-02 -2.426760538e-01 6.284060925e-02 -2.426760538e-01 0.000000000e+00 0.000000000e+00
3.096087e+10 0.000000000e+00 0.000000000e+00 6.258705262e-02 -2.422187306e-01 6.258705262e-02 -2.422187306e-01 0.000000000e+00 0.000000000e+00
3.102758e+10 0.000000000e+00 0.000000000e+00 6.233499364e-02 -2.417629877e-01 6.233499364e-02 -2.417629877e-01 0.000000000e+00 0.000000000e+00
3.109428e+10 0.000000000e+00 0.000000000e+00 6.208442081e-02 -2.413088177e-01 6.208442081e-02 -2.413088177e-01 0.000000000e+00 0.000000000e+00
3.116099e+10 0.000000000e+00 0.000000000e+00 6.183532275e-02 -2.408562136e-01 6.183532275e-02 -2.408562136e-01 0.000000000e+00 0.000000000e+00
3.122769e+10 0.000000000e+00 0.000000000e+00 6.158768817e-02 -2.404051681e-01 6.158768817e-02 -2.404051681e-01 0.000000000e+00 0.000000000e+00
3.129440e+10 0.000000000e+00 0.000000000e+00 6.134150590e-02 -2.399556742e-01 6.134150590e-02 -2.399556742e-01 0.000000000e+00 0.000000000e+00
3.136110e+10 0.000000000e+00 0.000000000e+00 6.109676487e-02 -2.395077247e-01 6.109676487e-02 -2.395077247e-01 0.000000000e+00 0.000000000e+00
3.142781e+10 0.000000000e+00 0.000000000e+00 6.085345411e-02 -2.390613127e-01 6.085345411e-02 -2.390613127e-01 0.000000000e+00 0.000000000e+00
3.149451e+10 0.000000000e+00 0.000000000e+00 6.061156274e-02 -2.386164311e-01 6.061156274e-02 -2.386164311e-01 0.000000000e+00 0.000000000e+00
3.156121e+10 0.000000000e+00 0.000000000e+00 6.037108000e-02 -2.381730730e-01 6.037108000e-02 -2.381730730e-01 0.000000000e+00 0.000000000e+00
3.162792e+10 0.000000000e+00 0.000000000e+00 6.013199523e-02 -2.377312314e-01 6.013199523e-02 -2.377312314e-01 0.000000000e+00 0.000000000e+00
3.169462e+10 0.000000000e+00 0.000000000e+00 5.989429785e-02 -2.372908994e-01 5.989429785e-02 -2.372908994e-01 0.000000000e+00 0.000000000e+00
3.176133e+10 0.000000000e+00 0.000000000e+00 5.965797739e-02 -2.368520701e-01 5.965797739e-02 -2.368520701e-01 0.000000000e+00 0.000000000e+00
3.182803e+10 0.000000000e+00 0.000000000e+00 5.942302348e-02 -2.364147368e-01 5.942302348e-02 -2.364147368e-01 0.000000000e+00 0.000000000e+00
3.189474e+10 0.000000000e+00 0.000000000e+00 5.918942583e-02 -2.359788925e-01 5.918942583e-02 -2.359788925e-01 0.000000000e+00 0.000000000e+00
3.196144e+10 0.000000000e+00 0.000000000e+00 5.895717426e-02 -2.355445305e-01 5.895717426e-02 -2.355445305e-01 0.000000000e+00 0.000000000e+00
3.202815e+10 0.000000000e+00 0.000000000e+00 5.872625866e-02 -2.351116441e-01 5.872625866e-02 -2.351116441e-01 0.000000000e+00 0.000000000e+00
3.209485e+10 0.000000000e+00 0.000000000e+00 5.849666905e-02 -2.346802266e-01 5.849666905e-02 -2.346802266e-01 0.000000000e+00 0.000000000e+00
3.216155e+10 0.000000000e+00 0.000000000e+00 5.826839551e-02 -2.342502713e-01 5.826839551e-02 -2.342502713e-01 0.000000000e+00 0.000000000e+00
3.222826e+10 0.000000000e+00 0.000000000e+00 5.804142822e-02 -2.338217715e-01 5.804142822e-02 -2.338217715e-01 0.000000000e+00 0.000000000e+00
3.229496e+10 0.000000000e+00 0.000000000e+00 5.781575744e-02 -2.333947207e-01 5.781575744e-02 -2.333947207e-01 0.000000000e+00 0.000000000e+00
3.236167e+10 0.000000000e+00 0.000000000e+00 5.759137355e-02 -2.329691122e-01 5.759137355e-02 -2.329691122e-01 0.000000000e+00 0.000000000e+00
3.242837e+10 0.000000000e+00 0.000000000e+00 5.736826697e-02 -2.325449396e-01 5.736826697e-02 -2.325449396e-01 0.000000000e+00 0.000000000e+00
3.249508e+10 0.000000000e+00 0.000000000e+00 5.714642824e-02 -2.321221962e-01 5.714642824e-02 -2.321221962e-01 0.000000000e+00 0.000000000e+00
3.256178e+10 0.000000000e+00 0.000000000e+00 5.692584798e-02 -2.317008757e-01 5.692584798e-02 -2.317008757e-01 0.000000000e+00 0.000000000e+00
3.262849e+10 0.000000000e+00 0.000000000e+00 5.670651689e-02 -2.312809716e-01 5.670651689e-02 -2.312809716e-01 0.000000000e+00 0.000000000e+00
3.269519e+10 0.000000000e+00 0.000000000e+00 5.648842575e-02 -2.308624775e-01 5.648842575e-02 -2.308624775e-01 0.000000000e+00 0.000000000e+00
3.276189e+10 0.000000000e+00 0.000000000e+00 5.627156543e-02 -2.304453869e-01 5.627156543e-02 -2.304453869e-01 0.000000000e+00 0.000000000e+00
3.282860e+10 0.000000000e+00 0.000000000e+00 5.605592688e-02 -2.300296936e-01 5.605592688e-02 -2.300296936e-01 0.000000000e+00 0.000000000e+00
3.289530e+10 0.000000000e+00 0.000000000e+00 5.584150114e-02 -2.296153912e-01 5.584150114e-02 -2.296153912e-01 0.000000000e+00 0.000000000e+00
3.296201e+10 0.000000000e+00 0.000000000e+00 5.562827931e-02 -2.292024735e-01 5.562827931e-02 -2.292024735e-01 0.000000000e+00 0.000000000e+00
3.302871e+10 0.000000000e+00 0.000000000e+00 5.541625258e-02 -2.287909341e-01 5.541625258e-02 -2.287909341e-01 0.000000000e+00 0.000000000e+00
3.309542e+10 0.000000000e+00 0.000000000e+00 5.520541222e-02 -2.283807669e-01 5.520541222e-02 -2.283807669e-01 0.000000000e+00 0.000000000e+00
3.316212e+10 0.000000000e+00 0.000000000e+00 5.499574959e-02 -2.279719656e-01 5.499574959e-02 -2.279719656e-01 0.000000000e+00 0.000000000e+00
3.322883e+10 0.000000000e+00 0.000000000e+00 5.478725609e-02 -2.275645242e-01 5.478725609e-02 -2.275645242e-01 0.000000000e+00 0.000000000e+00
3.329553e+10 0.000000000e+00 0.000000000e+00 5.457992325e-02 -2.271584364e-01 5.457992325e-02 -2.271584364e-01 0.000000000e+00 0.000000000e+00
3.336223e+10 0.000000000e+00 0.000000000e+00 5.437374262e-02 -2.267536962e-01 5.437374262e-02 -2.267536962e-01 0.000000000e+00 0.000000000e+00
3.342894e+10 0.000000000e+00 0.000000000e+00 5.416870586e-02 -2.263502975e-01 5.416870586e-02 -2.263502975e-01 0.000000000e+00 0.000000000e+00
3.349564e+10 0.000000000e+00 0.000000000e+00 5.396480470e-02 -2.259482342e-01 5.396480470e-02 -2.259482342e-01 0.000000000e+00 0.000000000e+00
3.356235e+10 0.000000000e+00 0.000000000e+00 5.376203092e-02 -2.255475004e-01 5.376203092e-02 -2.255475004e-01 0.000000000e+00 0.000000000e+00
3.362905e+10 0.000000000e+00 0.000000000e+00 5.356037641e-02 -2.251480901e-01 5.356037641e-02 -2.251480901e-01 0.000000000e+00 0.000000000e+00
3.369576e+10 0.000000000e+00 0.000000000e+00 5.335983310e-02 -2.247499974e-01 5.335983310e-02 -2.247499974e-01 0.000000000e+00 0.000000000e+00
3.376246e+10 0.000000000e+00 0.000000000e+00 5.316039300e-02 -2.243532162e-01 5.316039300e-02 -2.243532162e-01 0.000000000e+00 0.000000000e+00
3.382917e+10 0.000000000e+00 0.000000000e+00 5.296204820e-02 -2.239577408e-01 5.296204820e-02 -2.239577408e-01 0.000000000e+00 0.000000000e+00
3.389587e+10 0.000000000e+00 0.000000000e+00 5.276479085e-02 -2.235635652e-01 5.276479085e-02 -2.235635652e-01 0.000000000e+00 0.000000000e+00
3.396258e+10 0.000000000e+00 0.000000000e+00 5.256861316e-02 -2.231706837e-01 5.256861316e-02 -2.231706837e-01 0.000000000e+00 0.000000000e+00
3.402928e+10 0.000000000e+00 0.000000000e+00 5.237350743e-02 -2.227790905e-01 5.237350743e-02 -2.227790905e-01 0.000000000e+00 0.000000000e+00
3.409598e+10 0.000000000e+00 0.000000000e+00 5.217946601e-02 -2.223887797e-01 5.217946601e-02 -2.223887797e-01 0.000000000e+00 0.000000000e+00
3.416269e+10 0.000000000e+00 0.000000000e+00 5.198648132e-02 -2.219997457e-01 5.198648132e-02 -2.219997457e-01 0.000000000e+00 0.000000000e+00
3.422939e+10 0.000000000e+00 0.000000000e+00 5.179454585e-02 -2.216119827e-01 5.179454585e-02 -2.216119827e-01 0.000000000e+00 0.000000000e+00
3.429610e+10 0.000000000e+00 0.000000000e+00 5.160365216e-02 -2.212254851e-01 5.160365216e-02 -2.212254851e-01 0.000000000e+00 0.000000000e+00
3.436280e+10 0.000000000e+00 0.000000000e+00 5.141379286e-02 -2.208402471e-01 5.141379286e-02 -2.208402471e-01 0.000000000e+00 0.000000000e+00
3.442951e+10 0.000000000e+00 0.000000000e+00 5.122496063e-02 -2.204562633e-01 5.122496063e-02 -2.204562633e-01 0.000000000e+00 0.000000000e+00
3.449621e+10 0.000000000e+00 0.000000000e+00 5.103714822e-02 -2.200735280e-01 5.103714822e-02 -2.200735280e-01 0.000000000e+00 0.000000000e+00
3.456292e+10 0.000000000e+00 0.000000000e+00 5.085034843e-02 -2.196920356e-01 5.085034843e-02 -2.196920356e-01 0.000000000e+00 0.000000000e+00
3.462962e+10 0.000000000e+00 0.000000000e+00 5.066455414e-02 -2.193117806e-01 5.066455414e-02 -2.193117806e-01 0.000000000e+00 0.000000000e+00
3.469632e+10 0.000000000e+00 0.000000000e+00 5.047975828e-02 -2.189327574e-01 5.047975828e-02 -2.189327574e-01 0.000000000e+00 0.000000000e+00
3.476303e+10 0.000000000e+00 0.000000000e+00 5.029595383e-02 -2.185549607e-01 5.029595383e-02 -2.185549607e-01 0.000000000e+00 0.000000000e+00
3.482973e+10 0.000000000e+00 0.000000000e+00 5.011313386e-02 -2.181783850e-01 5.011313386e-02 -2.181783850e-01 0.000000000e+00 0.000000000e+00
3.489644e+10 0.000000000e+00 0.000000000e+00 4.993129146e-02 -2.178030248e-01 4.993129146e-02 -2.178030248e-01 0.000000000e+00 0.000000000e+00
3.496314e+10 0.000000000e+00 0.000000000e+00 4.975041982e-02 -2.174288747e-01 4.975041982e-02 -2.174288747e-01 0.000000000e+00 0.000000000e+00
3.502985e+10 0.000000000e+00 0.000000000e+00 4.957051216e-02 -2.170559294e-01 4.957051216e-02 -2.170559294e-01 0.000000000e+00 0.000000000e+00
3.509655e+10 0.000000000e+00 0.000000000e+00 4.939156177e-02 -2.166841835e-01 4.939156177e-02 -2.166841835e-01 0.000000000e+00 0.000000000e+00
3.516326e+10 0.000000000e+00 0.000000000e+00 4.921356199e-02 -2.163136318e-01 4.921356199e-02 -2.163136318e-01 0.000000000e+00 0.000000000e+00
3.522996e+10 0.000000000e+00 0.000000000e+00 4.903650622e-02 -2.159442689e-01 4.903650622e-02 -2.159442689e-01 0.000000000e+00 0.000000000e+00
3.529666e+10 0.000000000e+00 0.000000000e+00 4.886038792e-02 -2.155760896e-01 4.886038792e-02 -2.155760896e-01 0.000000000e+00 0.000000000e+00
3.536337e+10 0.000000000e+00 0.000000000e+00 4.868520059e-02 -2.152090886e-01 4.868520059e-02 -2.152090886e-01 0.000000000e+00 0.000000000e+00
3.543007e+10 0.000000000e+00 0.000000000e+00 4.851093782e-02 -2.148432608e-01 4.851093782e-02 -2.148432608e-01 0.000000000e+00 0.000000000e+00
3.549678e+10 0.000000000e+00 0.000000000e+00 4.833759321e-02 -2.144786010e-01 4.833759321e-02 -2.144786010e-01 0.000000000e+00 0.000000000e+00
3.556348e+10 0.000000000e+00 0.000000000e+00 4.816516045e-02 -2.141151040e-01 4.816516045e-02 -2.141151040e-01 0.000000000e+00 0.000000000e+00
3.563019e+10 0.000000000e+00 0.000000000e+00 4.799363326e-02 -2.137527647e-01 4.799363326e-02 -2.137527647e-01 0.000000000e+00 0.000000000e+00
3.569689e+10 0.000000000e+00 0.000000000e+00 4.782300542e-02 -2.133915780e-01 4.782300542e-02 -2.133915780e-01 0.000000000e+00 0.000000000e+00
3.576360e+10 0.000000000e+00 0.000000000e+00 4.765327077e-02 -2.130315389e-01 4.765327077e-02 -2.130315389e-01 0.000000000e+00 0.000000000e+00
3.583030e+10 0.000000000e+00 0.000000000e+00 4.748442319e-02 -2.126726422e-01 4.748442319e-02 -2.126726422e-01 0.000000000e+00 0.000000000e+00
3.589700e+10 0.000000000e+00 0.000000000e+00 4.731645662e-02 -2.123148830e-01 4.731645662e-02 -2.123148830e-01 0.000000000e+00 0.000000000e+00
3.596371e+10 0.000000000e+00 0.000000000e+00 4.714936504e-02 -2.119582563e-01 4.714936504e-02 -2.119582563e-01 0.000000000e+00 0.000000000e+00
3.603041e+10 0.000000000e+00 0.000000000e+00 4.698314250e-02 -2.116027571e-01 4.698314250e-02 -2.116027571e-01 0.000000000e+00 0.000000000e+00
3.609712e+10 0.000000000e+00 0.000000000e+00 4.681778308e-02 -2.112483805e-01 4.681778308e-02 -2.112483805e-01 0.000000000e+00 0.000000000e+00
3.616382e+10 0.000000000e+00 0.000000000e+00 4.665328092e-02 -2.108951216e-01 4.665328092e-02 -2.108951216e-01 0.000000000e+00 0.000000000e+00
3.623053e+10 0.000000000e+00 0.000000000e+00 4.648963020e-02 -2.105429754e-01 4.648963020e-02 -2.105429754e-01 0.000000000e+00 0.000000000e+00
3.629723e+10 0.000000000e+00 0.000000000e+00 4.632682516e-02 -2.101919371e-01 4.632682516e-02 -2.101919371e-01 0.000000000e+00 0.000000000e+00
3.636394e+10 0.000000000e+00 0.000000000e+00 4.616486008e-02 -2.098420019e-01 4.616486008e-02 -2.098420019e-01 0.000000000e+00 0.000000000e+00
3.643064e+10 0.000000000e+00 0.000000000e+00 4.600372929e-02 -2.094931650e-01 4.600372929e-02 -2.094931650e-01 0.000000000e+00 0.000000000e+00
3.649734e+10 0.000000000e+00 0.000000000e+00 4.584342716e-02 -2.091454215e-01 4.584342716e-02 -2.091454215e-01 0.000000000e+00 0.000000000e+00
3.656405e+10 0.000000000e+00 0.000000000e+00 4.568394811e-02 -2.087987668e-01 4.568394811e-02 -2.087987668e-01 0.000000000e+00 0.000000000e+00
3.663075e+10 0.000000000e+00 0.000000000e+00 4.552528662e-02 -2.084531959e-01 4.552528662e-02 -2.084531959e-01 0.000000000e+00 0.000000000e+00
3.669746e+10 0.000000000e+00 0.000000000e+00 4.536743720e-02 -2.081087044e-01 4.536743720e-02 -2.081087044e-01 0.000000000e+00 0.000000000e+00
3.676416e+10 0.000000000e+00 0.000000000e+00 4.521039441e-02 -2.077652874e-01 4.521039441e-02 -2.077652874e-01 0.000000000e+00 0.000000000e+00
3.683087e+10 0.000000000e+00 0.000000000e+00 4.505415285e-02 -2.074229403e-01 4.505415285e-02 -2.074229403e-01 0.000000000e+00 0.000000000e+00
3.689757e+10 0.000000000e+00 0.000000000e+00 4.489870716e-02 -2.070816584e-01 4.489870716e-02 -2.070816584e-01 0.000000000e+00 0.000000000e+00
3.696428e+10 0.000000000e+00 0.000000000e+00 4.474405205e-02 -2.067414372e-01 4.474405205e-02 -2.067414372e-01 0.000000000e+00 0.000000000e+00
3.703098e+10 0.000000000e+00 0.000000000e+00 4.459018225e-02 -2.064022720e-01 4.459018225e-02 -2.064022720e-01 0.000000000e+00 0.000000000e+00
3.709769e+10 0.000000000e+00 0.000000000e+00 4.443709253e-02 -2.060641583e-01 4.443709253e-02 -2.060641583e-01 0.000000000e+00 0.000000000e+00
3.716439e+10 0.000000000e+00 0.000000000e+00 4.428477771e-02 -2.057270915e-01 4.428477771e-02 -2.057270915e-01 0.000000000e+00 0.000000000e+00
3.723109e+10 0.000000000e+00 0.000000000e+00 4.413323267e-02 -2.053910671e-01 4.413323267e-02 -2.053910671e-01 0.000000000e+00 0.000000000e+00
3.729780e+10 0.000000000e+00 0.000000000e+00 4.398245230e-02 -2.050560806e-01 4.398245230e-02 -2.050560806e-01 0.000000000e+00 0.000000000e+00
3.736450e+10 0.000000000e+00 0.000000000e+00 4.383243154e-02 -2.047221275e-01 4.383243154e-02 -2.047221275e-01 0.000000000e+00 0.000000000e+00
3.743121e+10 0.000000000e+00 0.000000000e+00 4.368316540e-02 -2.043892034e-01 4.368316540e-02 -2.043892034e-01 0.000000000e+00 0.000000000e+00
3.749791e+10 0.000000000e+00 0.000000000e+00 4.353464889e-02 -2.040573038e-01 4.353464889e-02 -2.040573038e-01 0.000000000e+00 0.000000000e+00
3.756462e+10 0.000000000e+00 0.000000000e+00 4.338687708e-02 -2.037264243e-01 4.338687708e-02 -2.037264243e-01 0.000000000e+00 0.000000000e+00
3.763132e+10 0.000000000e+00 0.000000000e+00 4.323984508e-02 -2.033965606e-01 4.323984508e-02 -2.033965606e-01 0.000000000e+00 0.000000000e+00
3.769803e+10 0.000000000e+00 0.000000000e+00 4.309354804e-02 -2.030677083e-01 4.309354804e-02 -2.030677083e-01 0.000000000e+00 0.000000000e+00
3.776473e+10 0.000000000e+00 0.000000000e+00 4.294798114e-02 -2.027398630e-01 4.294798114e-02 -2.027398630e-01 0.000000000e+00 0.000000000e+00
3.783143e+10 0.000000000e+00 0.000000000e+00 4.280313961e-02 -2.024130205e-01 4.280313961e-02 -2.024130205e-01 0.000000000e+00 0.000000000e+00
3.789814e+10 0.000000000e+00 0.000000000e+00 4.265901872e-02 -2.020871763e-01 4.265901872e-02 -2.020871763e-01 0.000000000e+00 0.000000000e+00
3.796484e+10 0.000000000e+00 0.000000000e+00 4.251561375e-02 -2.017623264e-01 4.251561375e-02 -2.017623264e-01 0.000000000e+00 0.000000000e+00
3.803155e+10 0.000000000e+00 0.000000000e+00 4.237292006e-02 -2.014384663e-01 4.237292006e-02 -2.014384663e-01 0.000000000e+00 0.000000000e+00
3.809825e+10 0.000000000e+00 0.000000000e+00 4.223093302e-02 -2.011155919e-01 4.223093302e-02 -2.011155919e-01 0.000000000e+00 0.000000000e+00
3.816496e+10 0.000000000e+00 0.000000000e+00 4.208964803e-02 -2.007936990e-01 4.208964803e-02 -2.007936990e-01 0.000000000e+00 0.000000000e+00
3.823166e+10 0.000000000e+00 0.000000000e+00 4.194906056e-02 -2.004727834e-01 4.194906056e-02 -2.004727834e-01 0.000000000e+00 0.000000000e+00
3.829837e+10 0.000000000e+00 0.000000000e+00 4.180916608e-02 -2.001528409e-01 4.180916608e-02 -2.001528409e-01 0.000000000e+00 0.000000000e+00
3.836507e+10 0.000000000e+00 0.000000000e+00 4.166996012e-02 -1.998338674e-01 4.166996012e-02 -1.998338674e-01 0.000000000e+00 0.000000000e+00
3.843177e+10 0.000000000e+00 0.000000000e+00 4.153143824e-02 -1.995158587e-01 4.153143824e-02 -1.995158587e-01 0.000000000e+00 0.000000000e+00
3.849848e+10 0.000000000e+00 0.000000000e+00 4.139359602e-02 -1.991988108e-01 4.139359602e-02 -1.991988108e-01 0.000000000e+00 0.000000000e+00
3.856518e+10 0.000000000e+00 0.000000000e+00 4.125642909e-02 -1.988827196e-01 4.125642909e-02 -1.988827196e-01 0.000000000e+00 0.000000000e+00
3.863189e+10 0.000000000e+00 0.000000000e+00 4.111993313e-02 -1.985675810e-01 4.111993313e-02 -1.985675810e-01 0.000000000e+00 0.000000000e+00
3.869859e+10 0.000000000e+00 0.000000000e+00 4.098410381e-02 -1.982533910e-01 4.098410381e-02 -1.982533910e-01 0.000000000e+00 0.000000000e+00
3.876530e+10 0.000000000e+00 0.000000000e+00 4.084893688e-02 -1.979401456e-01 4.084893688e-02 -1.979401456e-01 0.000000000e+00 0.000000000e+00
3.883200e+10 0.000000000e+00 0.000000000e+00 4.071442809e-02 -1.976278407e-01 4.071442809e-02 -1.976278407e-01 0.000000000e+00 0.000000000e+00
3.889871e+10 0.000000000e+00 0.000000000e+00 4.058057324e-02 -1.973164725e-01 4.058057324e-02 -1.973164725e-01 0.000000000e+00 0.000000000e+00
3.896541e+10 0.000000000e+00 0.000000000e+00 4.044736817e-02 -1.970060369e-01 4.044736817e-02 -1.970060369e-01 0.000000000e+00 0.000000000e+00
3.903211e+10 0.000000000e+00 0.000000000e+00 4.031480873e-02 -1.966965300e-01 4.031480873e-02 -1.966965300e-01 0.000000000e+00 0.000000000e+00
3.909882e+10 0.000000000e+00 0.000000000e+00 4.018289082e-02 -1.963879480e-01 4.018289082e-02 -1.963879480e-01 0.000000000e+00 0.000000000e+00
3.916552e+10 0.000000000e+00 0.000000000e+00 4.005161037e-02 -1.960802868e-01 4.005161037e-02 -1.960802868e-01 0.000000000e+00 0.000000000e+00
3.923223e+10 0.000000000e+00 0.000000000e+00 3.992096333e-02 -1.957735427e-01 3.992096333e-02 -1.957735427e-01 0.000000000e+00 0.000000000e+00
3.929893e+10 0.000000000e+00 0.000000000e+00 3.979094570e-02 -1.954677118e-01 3.979094570e-02 -1.954677118e-01 0.000000000e+00 0.000000000e+00
3.936564e+10 0.000000000e+00 0.000000000e+00 3.966155350e-02 -1.951627902e-01 3.966155350e-02 -1.951627902e-01 0.000000000e+00 0.000000000e+00
3.943234e+10 0.000000000e+00 0.000000000e+00 3.953278277e-02 -1.948587741e-01 3.953278277e-02 -1.948587741e-01 0.000000000e+00 0.000000000e+00
3.949905e+10 0.000000000e+00 0.000000000e+00 3.940462961e-02 -1.945556598e-01 3.940462961e-02 -1.945556598e-01 0.000000000e+00 0.000000000e+00
3.956575e+10 0.000000000e+00 0.000000000e+00 3.927709012e-02 -1.942534435e-01 3.927709012e-02 -1.942534435e-01 0.000000000e+00 0.000000000e+00
3.963245e+10 0.000000000e+00 0.000000000e+00 3.915016045e-02 -1.939521214e-01 3.915016045e-02 -1.939521214e-01 0.000000000e+00 0.000000000e+00
3.969916e+10 0.000000000e+00 0.000000000e+00 3.902383677e-02 -1.936516897e-01 3.902383677e-02 -1.936516897e-01 0.000000000e+00 0.000000000e+00
3.976586e+10 0.000000000e+00 0.000000000e+00 3.889811528e-02 -1.933521448e-01 3.889811528e-02 -1.933521448e-01 0.000000000e+00 0.000000000e+00
3.983257e+10 0.000000000e+00 0.000000000e+00 3.877299222e-02 -1.930534830e-01 3.877299222e-02 -1.930534830e-01 0.000000000e+00 0.000000000e+00
3.989927e+10 0.000000000e+00 0.000000000e+00 3.864846385e-02 -1.927557005e-01 3.864846385e-02 -1.927557005e-01 0.000000000e+00 0.000000000e+00
3.996598e+10 0.000000000e+00 0.000000000e+00 3.852452646e-02 -1.924587938e-01 3.852452646e-02 -1.924587938e-01 0.000000000e+00 0.000000000e+00
4.003268e+10 0.000000000e+00 0.000000000e+00 3.840117636e-02 -1.921627592e-01 3.840117636e-02 -1.921627592e-01 0.000000000e+00 0.000000000e+00
4.009939e+10 0.000000000e+00 0.000000000e+00 3.827840990e-02 -1.918675930e-01 3.827840990e-02 -1.918675930e-01 0.000000000e+00 0.000000000e+00
4.016609e+10 0.000000000e+00 0.000000000e+00 3.815622345e-02 -1.915732916e-01 3.815622345e-02 -1.915732916e-01 0.000000000e+00 0.000000000e+00
4.023280e+10 0.000000000e+00 0.000000000e+00 3.803461343e-02 -1.912798515e-01 3.803461343e-02 -1.912798515e-01 0.000000000e+00 0.000000000e+00
4.029950e+10 0.000000000e+00 0.000000000e+00 3.791357625e-02 -1.909872692e-01 3.791357625e-02 -1.909872692e-01 0.000000000e+00 0.000000000e+00
4.036620e+10 0.000000000e+00 0.000000000e+00 3.779310837e-02 -1.906955409e-01 3.779310837e-02 -1.906955409e-01 0.000000000e+00 0.000000000e+00
4.043291e+10 0.000000000e+00 0.000000000e+00 3.767320628e-02 -1.904046633e-01 3.767320628e-02 -1.904046633e-01 0.000000000e+00 0.000000000e+00
4.049961e+10 0.000000000e+00 0.000000000e+00 3.755386649e-02 -1.901146328e-01 3.755386649e-02 -1.901146328e-01 0.000000000e+00 0.000000000e+00
4.056632e+10 0.000000000e+00 0.000000000e+00 3.743508553e-02 -1.898254459e-01 3.743508553e-02 -1.898254459e-01 0.000000000e+00 0.000000000e+00
4.063302e+10 0.000000000e+00 0.000000000e+00 3.731685997e-02 -1.895370991e-01 3.731685997e-02 -1.895370991e-01 0.000000000e+00 0.000000000e+00
4.069973e+10 0.000000000e+00 0.000000000e+00 3.719918640e-02 -1.892495890e-01 3.719918640e-02 -1.892495890e-01 0.000000000e+00 0.000000000e+00
4.076643e+10 0.000000000e+00 0.000000000e+00 3.708206143e-02 -1.889629121e-01 3.708206143e-02 -1.889629121e-01 0.000000000e+00 0.000000000e+00
4.083314e+10 0.000000000e+00 0.000000000e+00 3.696548169e-02 -1.886770650e-01 3.696548169e-02 -1.886770650e-01 0.000000000e+00 0.000000000e+00
4.089984e+10 0.000000000e+00 0.000000000e+00 3.684944387e-02 -1.883920443e-01 3.684944387e-02 -1.883920443e-01 0.000000000e+00 0.000000000e+00
4.096654e+10 0.000000000e+00 0.000000000e+00 3.673394464e-02 -1.881078466e-01 3.673394464e-02 -1.881078466e-01 0.000000000e+00 0.000000000e+00
4.103325e+10 0.000000000e+00 0.000000000e+00 3.661898073e-02 -1.878244685e-01 3.661898073e-02 -1.878244685e-01 0.000000000e+00 0.000000000e+00
4.109995e+10 0.000000000e+00 0.000000000e+00 3.650454887e-02 -1.875419067e-01 3.650454887e-02 -1.875419067e-01 0.000000000e+00 0.000000000e+00
4.116666e+10 0.000000000e+00 0.000000000e+00 3.639064583e-02 -1.872601579e-01 3.639064583e-02 -1.872601579e-01 0.000000000e+00 0.000000000e+00
4.123336e+10 0.000000000e+00 0.000000000e+00 3.627726840e-02 -1.869792186e-01 3.627726840e-02 -1.869792186e-01 0.000000000e+00 0.000000000e+00
4.130007e+10 0.000000000e+00 0.000000000e+00 3.616441338e-02 -1.866990857e-01 3.616441338e-02 -1.866990857e-01 0.000000000e+00 0.000000000e+00
4.136677e+10 0.000000000e+00 0.000000000e+00 3.605207763e-02 -1.864197557e-01 3.605207763e-02 -1.864197557e-01 0.000000000e+00 0.000000000e+00
4.143348e+10 0.000000000e+00 0.000000000e+00 3.594025799e-02 -1.861412255e-01 3.594025799e-02 -1.861412255e-01 0.000000000e+00 0.000000000e+00
4.150018e+10 0.000000000e+00 0.000000000e+00 3.582895135e-02 -1.858634918e-01 3.582895135e-02 -1.858634918e-01 0.000000000e+00 0.000000000e+00
4.156688e+10 0.000000000e+00 0.000000000e+00 3.571815463e-02 -1.855865514e-01 3.571815463e-02 -1.855865514e-01 0.000000000e+00 0.000000000e+00
4.163359e+10 0.000000000e+00 0.000000000e+00 3.560786474e-02 -1.853104010e-01 3.560786474e-02 -1.853104010e-01 0.000000000e+00 0.000000000e+00
4.170029e+10 0.000000000e+00 0.000000000e+00 3.549807864e-02 -1.850350374e-01 3.549807864e-02 -1.850350374e-01 0.000000000e+00 0.000000000e+00
4.176700e+10 0.000000000e+00 0.000000000e+00 3.538879330e-02 -1.847604574e-01 3.538879330e-02 -1.847604574e-01 0.000000000e+00 0.000000000e+00
4.183370e+10 0.000000000e+00 0.000000000e+00 3.528000573e-02 -1.844866579e-01 3.528000573e-02 -1.844866579e-01 0.000000000e+00 0.000000000e+00
4.190041e+10 0.000000000e+00 0.000000000e+00 3.517171294e-02 -1.842136356e-01 3.517171294e-02 -1.842136356e-01 0.000000000e+00 0.000000000e+00
4.196711e+10 0.000000000e+00 0.000000000e+00 3.506391198e-02 -1.839413876e-01 3.506391198e-02 -1.839413876e-01 0.000000000e+00 0.000000000e+00
4.203382e+10 0.000000000e+00 0.000000000e+00 3.495659991e-02 -1.836699105e-01 3.495659991e-02 -1.836699105e-01 0.000000000e+00 0.000000000e+00
4.210052e+10 0.000000000e+00 0.000000000e+00 3.484977380e-02 -1.833992014e-01 3.484977380e-02 -1.833992014e-01 0.000000000e+00 0.000000000e+00
4.216722e+10 0.000000000e+00 0.000000000e+00 3.474343078e-02 -1.831292571e-01 3.474343078e-02 -1.831292571e-01 0.000000000e+00 0.000000000e+00
4.223393e+10 0.000000000e+00 0.000000000e+00 3.463756797e-02 -1.828600745e-01 3.463756797e-02 -1.828600745e-01 0.000000000e+00 0.000000000e+00
4.230063e+10 0.000000000e+00 0.000000000e+00 3.453218251e-02 -1.825916506e-01 3.453218251e-02 -1.825916506e-01 0.000000000e+00 0.000000000e+00
4.236734e+10 0.000000000e+00 0.000000000e+00 3.442727157e-02 -1.823239824e-01 3.442727157e-02 -1.823239824e-01 0.000000000e+00 0.000000000e+00
4.243404e+10 0.000000000e+00 0.000000000e+00 3.432283236e-02 -1.820570667e-01 3.432283236e-02 -1.820570667e-01 0.000000000e+00 0.000000000e+00
4.250075e+10 0.000000000e+00 0.000000000e+00 3.421886206e-02 -1.817909006e-01 3.421886206e-02 -1.817909006e-01 0.000000000e+00 0.000000000e+00
4.256745e+10 0.000000000e+00 0.000000000e+00 3.411535793e-02 -1.815254811e-01 3.411535793e-02 -1.815254811e-01 0.000000000e+00 0.000000000e+00
4.263416e+10 0.000000000e+00 0.000000000e+00 3.401231721e-02 -1.812608052e-01 3.401231721e-02 -1.812608052e-01 0.000000000e+00 0.000000000e+00
4.270086e+10 0.000000000e+00 0.000000000e+00 3.390973716e-02 -1.809968698e-01 3.390973716e-02 -1.809968698e-01 0.000000000e+00 0.000000000e+00
4.276757e+10 0.000000000e+00 0.000000000e+00 3.380761509e-02 -1.807336722e-01 3.380761509e-02 -1.807336722e-01 0.000000000e+00 0.000000000e+00
4.283427e+10 0.000000000e+00 0.000000000e+00 3.370594830e-02 -1.804712092e-01 3.370594830e-02 -1.804712092e-01 0.000000000e+00 0.000000000e+00
4.290097e+10 0.000000000e+00 0.000000000e+00 3.360473412e-02 -1.802094780e-01 3.360473412e-02 -1.802094780e-01 0.000000000e+00 0.000000000e+00
4.296768e+10 0.000000000e+00 0.000000000e+00 3.350396990e-02 -1.799484757e-01 3.350396990e-02 -1.799484757e-01 0.000000000e+00 0.000000000e+00
4.303438e+10 0.000000000e+00 0.000000000e+00 3.340365301e-02 -1.796881993e-01 3.340365301e-02 -1.796881993e-01 0.000000000e+00 0.000000000e+00
4.310109e+10 0.000000000e+00 0.000000000e+00 3.330378084e-02 -1.794286460e-01 3.330378084e-02 -1.794286460e-01 0.000000000e+00 0.000000000e+00
4.316779e+10 0.000000000e+00 0.000000000e+00 3.320435079e-02 -1.791698130e-01 3.320435079e-02 -1.791698130e-01 0.000000000e+00 0.000000000e+00
4.323450e+10 0.000000000e+00 0.000000000e+00 3.310536029e-02 -1.789116972e-01 3.310536029e-02 -1.789116972e-01 0.000000000e+00 0.000000000e+00
4.330120e+10 0.000000000e+00 0.000000000e+00 3.300680678e-02 -1.786542960e-01 3.300680678e-02 -1.786542960e-01 0.000000000e+00 0.000000000e+00
4.336791e+10 0.000000000e+00 0.000000000e+00 3.290868773e-02 -1.783976065e-01 3.290868773e-02 -1.783976065e-01 0.000000000e+00 0.000000000e+00
4.343461e+10 0.000000000e+00 0.000000000e+00 3.281100060e-02 -1.781416258e-01 3.281100060e-02 -1.781416258e-01 0.000000000e+00 0.000000000e+00
4.350131e+10 0.000000000e+00 0.000000000e+00 3.271374292e-02 -1.778863512e-01 3.271374292e-02 -1.778863512e-01 0.000000000e+00 0.000000000e+00
4.356802e+10 0.000000000e+00 0.000000000e+00 3.261691217e-02 -1.776317799e-01 3.261691217e-02 -1.776317799e-01 0.000000000e+00 0.000000000e+00
4.363472e+10 0.000000000e+00 0.000000000e+00 3.252050591e-02 -1.773779090e-01 3.252050591e-02 -1.773779090e-01 0.000000000e+00 0.000000000e+00
4.370143e+10 0.000000000e+00 0.000000000e+00 3.242452168e-02 -1.771247359e-01 3.242452168e-02 -1.771247359e-01 0.000000000e+00 0.000000000e+00
4.376813e+10 0.000000000e+00 0.000000000e+00 3.232895706e-02 -1.768722578e-01 3.232895706e-02 -1.768722578e-01 0.000000000e+00 0.000000000e+00
4.383484e+10 0.000000000e+00 0.000000000e+00 3.223380961e-02 -1.766204720e-01 3.223380961e-02 -1.766204720e-01 0.000000000e+00 0.000000000e+00
4.390154e+10 0.000000000e+00 0.000000000e+00 3.213907696e-02 -1.763693757e-01 3.213907696e-02 -1.763693757e-01 0.000000000e+00 0.000000000e+00
4.396825e+10 0.000000000e+00 0.000000000e+00 3.204475672e-02 -1.761189663e-01 3.204475672e-02 -1.761189663e-01 0.000000000e+00 0.000000000e+00
4.403495e+10 0.000000000e+00 0.000000000e+00 3.195084652e-02 -1.758692410e-01 3.195084652e-02 -1.758692410e-01 0.000000000e+00 0.000000000e+00
4.410165e+10 0.000000000e+00 0.000000000e+00 3.185734402e-02 -1.756201972e-01 3.185734402e-02 -1.756201972e-01 0.000000000e+00 0.000000000e+00
4.416836e+10 0.000000000e+00 0.000000000e+00 3.176424690e-02 -1.753718322e-01 3.176424690e-02 -1.753718322e-01 0.000000000e+00 0.000000000e+00
4.423506e+10 0.000000000e+00 0.000000000e+00 3.167155282e-02 -1.751241433e-01 3.167155282e-02 -1.751241433e-01 0.000000000e+00 0.000000000e+00
4.430177e+10 0.000000000e+00 0.000000000e+00 3.157925951e-02 -1.748771280e-01 3.157925951e-02 -1.748771280e-01 0.000000000e+00 0.000000000e+00
4.436847e+10 0.000000000e+00 0.000000000e+00 3.148736468e-02 -1.746307835e-01 3.148736468e-02 -1.746307835e-01 0.000000000e+00 0.000000000e+00
4.443518e+10 0.000000000e+00 0.000000000e+00 3.139586605e-02 -1.743851073e-01 3.139586605e-02 -1.743851073e-01 0.000000000e+00 0.000000000e+00
4.450188e+10 0.000000000e+00 0.000000000e+00 3.130476140e-02 -1.741400968e-01 3.130476140e-02 -1.741400968e-01 0.000000000e+00 0.000000000e+00
4.456859e+10 0.000000000e+00 0.000000000e+00 3.121404847e-02 -1.738957494e-01 3.121404847e-02 -1.738957494e-01 0.000000000e+00 0.000000000e+00
4.463529e+10 0.000000000e+00 0.000000000e+00 3.112372505e-02 -1.736520624e-01 3.112372505e-02 -1.736520624e-01 0.000000000e+00 0.000000000e+00
4.470199e+10 0.000000000e+00 0.000000000e+00 3.103378894e-02 -1.734090335e-01 3.103378894e-02 -1.734090335e-01 0.000000000e+00 0.000000000e+00
4.476870e+10 0.000000000e+00 0.000000000e+00 3.094423796e-02 -1.731666599e-01 3.094423796e-02 -1.731666599e-01 0.000000000e+00 0.000000000e+00
4.483540e+10 0.000000000e+00 0.000000000e+00 3.085506993e-02 -1.729249392e-01 3.085506993e-02 -1.729249392e-01 0.000000000e+00 0.000000000e+00
4.490211e+10 0.000000000e+00 0.000000000e+00 3.076628269e-02 -1.726838688e-01 3.076628269e-02 -1.726838688e-01 0.000000000e+00 0.000000000e+00
4.496881e+10 0.000000000e+00 0.000000000e+00 3.067787410e-02 -1.724434462e-01 3.067787410e-02 -1.724434462e-01 0.000000000e+00 0.000000000e+00
4.503552e+10 0.000000000e+00 0.000000000e+00 3.058984205e-02 -1.722036690e-01 3.058984205e-02 -1.722036690e-01 0.000000000e+00 0.000000000e+00
4.510222e+10 0.000000000e+00 0.000000000e+00 3.050218440e-02 -1.719645346e-01 3.050218440e-02 -1.719645346e-01 0.000000000e+00 0.000000000e+00
4.516893e+10 0.000000000e+00 0.000000000e+00 3.041489907e-02 -1.717260405e-01 3.041489907e-02 -1.717260405e-01 0.000000000e+00 0.000000000e+00
4.523563e+10 0.000000000e+00 0.000000000e+00 3.032798398e-02 -1.714881843e-01 3.032798398e-02 -1.714881843e-01 0.000000000e+00 0.000000000e+00
4.530233e+10 0.000000000e+00 0.000000000e+00 3.024143705e-02 -1.712509636e-01 3.024143705e-02 -1.712509636e-01 0.000000000e+00 0.000000000e+00
4.536904e+10 0.000000000e+00 0.000000000e+00 3.015525623e-02 -1.710143759e-01 3.015525623e-02 -1.710143759e-01 0.000000000e+00 0.000000000e+00
4.543574e+10 0.000000000e+00 0.000000000e+00 3.006943949e-02 -1.707784187e-01 3.006943949e-02 -1.707784187e-01 0.000000000e+00 0.000000000e+00
4.550245e+10 0.000000000e+00 0.000000000e+00 2.998398479e-02 -1.705430897e-01 2.998398479e-02 -1.705430897e-01 0.000000000e+00 0.000000000e+00
4.556915e+10 0.000000000e+00 0.000000000e+00 2.989889012e-02 -1.703083864e-01 2.989889012e-02 -1.703083864e-01 0.000000000e+00 0.000000000e+00
4.563586e+10 0.000000000e+00 0.000000000e+00 2.981415349e-02 -1.700743065e-01 2.981415349e-02 -1.700743065e-01 0.000000000e+00 0.000000000e+00
4.570256e+10 0.000000000e+00 0.000000000e+00 2.972977290e-02 -1.698408476e-01 2.972977290e-02 -1.698408476e-01 0.000000000e+00 0.000000000e+00
4.576927e+10 0.000000000e+00 0.000000000e+00 2.964574640e-02 -1.696080072e-01 2.964574640e-02 -1.696080072e-01 0.000000000e+00 0.000000000e+00
4.583597e+10 0.000000000e+00 0.000000000e+00 2.956207201e-02 -1.693757831e-01 2.956207201e-02 -1.693757831e-01 0.000000000e+00 0.000000000e+00
4.590268e+10 0.000000000e+00 0.000000000e+00 2.947874781e-02 -1.691441729e-01 2.947874781e-02 -1.691441729e-01 0.000000000e+00 0.000000000e+00
4.596938e+10 0.000000000e+00 0.000000000e+00 2.939577184e-02 -1.689131743e-01 2.939577184e-02 -1.689131743e-01 0.000000000e+00 0.000000000e+00
4.603608e+10 0.000000000e+00 0.000000000e+00 2.931314221e-02 -1.686827849e-01 2.931314221e-02 -1.686827849e-01 0.000000000e+00 0.000000000e+00
4.610279e+10 0.000000000e+00 0.000000000e+00 2.923085700e-02 -1.684530024e-01 2.923085700e-02 -1.684530024e-01 0.000000000e+00 0.000000000e+00
4.616949e+10 0.000000000e+00 0.000000000e+00 2.914891432e-02 -1.682238245e-01 2.914891432e-02 -1.682238245e-01 0.000000000e+00 0.000000000e+00
4.623620e+10 0.000000000e+00 0.000000000e+00 2.906731230e-02 -1.679952489e-01 2.906731230e-02 -1.679952489e-01 0.000000000e+00 0.000000000e+00
4.630290e+10 0.000000000e+00 0.000000000e+00 2.898604906e-02 -1.677672734e-01 2.898604906e-02 -1.677672734e-01 0.000000000e+00 0.000000000e+00
4.636961e+10 0.000000000e+00 0.000000000e+00 2.890512275e-02 -1.675398956e-01 2.890512275e-02 -1.675398956e-01 0.000000000e+00 0.000000000e+00
4.643631e+10 0.000000000e+00 0.000000000e+00 2.882453154e-02 -1.673131134e-01 2.882453154e-02 -1.673131134e-01 0.000000000e+00 0.000000000e+00
4.650302e+10 0.000000000e+00 0.000000000e+00 2.874427359e-02 -1.670869244e-01 2.874427359e-02 -1.670869244e-01 0.000000000e+00 0.000000000e+00
4.656972e+10 0.000000000e+00 0.000000000e+00 2.866434708e-02 -1.668613265e-01 2.866434708e-02 -1.668613265e-01 0.000000000e+00 0.000000000e+00
4.663642e+10 0.000000000e+00 0.000000000e+00 2.858475021e-02 -1.666363174e-01 2.858475021e-02 -1.666363174e-01 0.000000000e+00 0.000000000e+00
4.670313e+10 0.000000000e+00 0.000000000e+00 2.850548120e-02 -1.664118948e-01 2.850548120e-02 -1.664118948e-01 0.000000000e+00 0.000000000e+00
4.676983e+10 0.000000000e+00 0.000000000e+00 2.842653826e-02 -1.661880567e-01 2.842653826e-02 -1.661880567e-01 0.000000000e+00 0.000000000e+00
4.683654e+10 0.000000000e+00 0.000000000e+00 2.834791961e-02 -1.659648007e-01 2.834791961e-02 -1.659648007e-01 0.000000000e+00 0.000000000e+00
4.690324e+10 0.000000000e+00 0.000000000e+00 2.826962352e-02 -1.657421247e-01 2.826962352e-02 -1.657421247e-01 0.000000000e+00 0.000000000e+00
4.696995e+10 0.000000000e+00 0.000000000e+00 2.819164822e-02 -1.655200266e-01 2.819164822e-02 -1.655200266e-01 0.000000000e+00 0.000000000e+00
4.703665e+10 0.000000000e+00 0.000000000e+00 2.811399200e-02 -1.652985041e-01 2.811399200e-02 -1.652985041e-01 0.000000000e+00 0.000000000e+00
4.710336e+10 0.000000000e+00 0.000000000e+00 2.803665312e-02 -1.650775551e-01 2.803665312e-02 -1.650775551e-01 0.000000000e+00 0.000000000e+00
4.717006e+10 0.000000000e+00 0.000000000e+00 2.795962988e-02 -1.648571775e-01 2.795962988e-02 -1.648571775e-01 0.000000000e+00 0.000000000e+00
4.723676e+10 0.000000000e+00 0.000000000e+00 2.788292058e-02 -1.646373691e-01 2.788292058e-02 -1.646373691e-01 0.000000000e+00 0.000000000e+00
4.730347e+10 0.000000000e+00 0.000000000e+00 2.780652353e-02 -1.644181279e-01 2.780652353e-02 -1.644181279e-01 0.000000000e+00 0.000000000e+00
4.737017e+10 0.000000000e+00 0.000000000e+00 2.773043705e-02 -1.641994516e-01 2.773043705e-02 -1.641994516e-01 0.000000000e+00 0.000000000e+00
4.743688e+10 0.000000000e+00 0.000000000e+00 2.765465949e-02 -1.639813383e-01 2.765465949e-02 -1.639813383e-01 0.000000000e+00 0.000000000e+00
4.750358e+10 0.000000000e+00 0.000000000e+00 2.757918919e-02 -1.637637857e-01 2.757918919e-02 -1.637637857e-01 0.000000000e+00 0.000000000e+00
4.757029e+10 0.000000000e+00 0.000000000e+00 2.750402450e-02 -1.635467919e-01 2.750402450e-02 -1.635467919e-01 0.000000000e+00 0.000000000e+00
4.763699e+10 0.000000000e+00 0.000000000e+00 2.742916379e-02 -1.633303547e-01 2.742916379e-02 -1.633303547e-01 0.000000000e+00 0.000000000e+00
4.770370e+10 0.000000000e+00 0.000000000e+00 2.735460544e-02 -1.631144721e-01 2.735460544e-02 -1.631144721e-01 0.000000000e+00 0.000000000e+00
4.777040e+10 0.000000000e+00 0.000000000e+00 2.728034785e-02 -1.628991420e-01 2.728034785e-02 -1.628991420e-01 0.000000000e+00 0.000000000e+00
4.783710e+10 0.000000000e+00 0.000000000e+00 2.720638941e-02 -1.626843624e-01 2.720638941e-02 -1.626843624e-01 0.000000000e+00 0.000000000e+00
4.790381e+10 0.000000000e+00 0.000000000e+00 2.713272852e-02 -1.624701313e-01 2.713272852e-02 -1.624701313e-01 0.000000000e+00 0.000000000e+00
4.797051e+10 0.000000000e+00 0.000000000e+00 2.705936363e-02 -1.622564466e-01 2.705936363e-02 -1.622564466e-01 0.000000000e+00 0.000000000e+00
4.803722e+10 0.000000000e+00 0.000000000e+00 2.698629314e-02 -1.620433063e-01 2.698629314e-02 -1.620433063e-01 0.000000000e+00 0.000000000e+00
4.810392e+10 0.000000000e+00 0.000000000e+00 2.691351551e-02 -1.618307084e-01 2.691351551e-02 -1.618307084e-01 0.000000000e+00 0.000000000e+00
4.817063e+10 0.000000000e+00 0.000000000e+00 2.684102919e-02 -1.616186510e-01 2.684102919e-02 -1.616186510e-01 0.000000000e+00 0.000000000e+00
4.823733e+10 0.000000000e+00 0.000000000e+00 2.676883264e-02 -1.614071319e-01 2.676883264e-02 -1.614071319e-01 0.000000000e+00 0.000000000e+00
4.830404e+10 0.000000000e+00 0.000000000e+00 2.669692434e-02 -1.611961494e-01 2.669692434e-02 -1.611961494e-01 0.000000000e+00 0.000000000e+00
4.837074e+10 0.000000000e+00 0.000000000e+00 2.662530275e-02 -1.609857012e-01 2.662530275e-02 -1.609857012e-01 0.000000000e+00 0.000000000e+00
4.843744e+10 0.000000000e+00 0.000000000e+00 2.655396638e-02 -1.607757857e-01 2.655396638e-02 -1.607757857e-01 0.000000000e+00 0.000000000e+00
4.850415e+10 0.000000000e+00 0.000000000e+00 2.648291373e-02 -1.605664006e-01 2.648291373e-02 -1.605664006e-01 0.000000000e+00 0.000000000e+00
4.857085e+10 0.000000000e+00 0.000000000e+00 2.641214331e-02 -1.603575442e-01 2.641214331e-02 -1.603575442e-01 0.000000000e+00 0.000000000e+00
4.863756e+10 0.000000000e+00 0.000000000e+00 2.634165364e-02 -1.601492145e-01 2.634165364e-02 -1.601492145e-01 0.000000000e+00 0.000000000e+00
4.870426e+10 0.000000000e+00 0.000000000e+00 2.627144325e-02 -1.599414096e-01 2.627144325e-02 -1.599414096e-01 0.000000000e+00 0.000000000e+00
4.877097e+10 0.000000000e+00 0.000000000e+00 2.620151067e-02 -1.597341276e-01 2.620151067e-02 -1.597341276e-01 0.000000000e+00 0.000000000e+00
4.883767e+10 0.000000000e+00 0.000000000e+00 2.613185447e-02 -1.595273665e-01 2.613185447e-02 -1.595273665e-01 0.000000000e+00 0.000000000e+00
4.890438e+10 0.000000000e+00 0.000000000e+00 2.606247320e-02 -1.593211244e-01 2.606247320e-02 -1.593211244e-01 0.000000000e+00 0.000000000e+00
4.897108e+10 0.000000000e+00 0.000000000e+00 2.599336543e-02 -1.591153996e-01 2.599336543e-02 -1.591153996e-01 0.000000000e+00 0.000000000e+00
4.903779e+10 0.000000000e+00 0.000000000e+00 2.592452973e-02 -1.589101900e-01 2.592452973e-02 -1.589101900e-01 0.000000000e+00 0.000000000e+00
4.910449e+10 0.000000000e+00 0.000000000e+00 2.585596469e-02 -1.587054939e-01 2.585596469e-02 -1.587054939e-01 0.000000000e+00 0.000000000e+00
4.917119e+10 0.000000000e+00 0.000000000e+00 2.578766891e-02 -1.585013093e-01 2.578766891e-02 -1.585013093e-01 0.000000000e+00 0.000000000e+00
4.923790e+10 0.000000000e+00 0.000000000e+00 2.571964100e-02 -1.582976344e-01 2.571964100e-02 -1.582976344e-01 0.000000000e+00 0.000000000e+00
4.930460e+10 0.000000000e+00 0.000000000e+00 2.565187955e-02 -1.580944674e-01 2.565187955e-02 -1.580944674e-01 0.000000000e+00 0.000000000e+00
4.937131e+10 0.000000000e+00 0.000000000e+00 2.558438321e-02 -1.578918065e-01 2.558438321e-02 -1.578918065e-01 0.000000000e+00 0.000000000e+00
4.943801e+10 0.000000000e+00 0.000000000e+00 2.551715060e-02 -1.576896497e-01 2.551715060e-02 -1.576896497e-01 0.000000000e+00 0.000000000e+00
4.950472e+10 0.000000000e+00 0.000000000e+00 2.545018035e-02 -1.574879953e-01 2.545018035e-02 -1.574879953e-01 0.000000000e+00 0.000000000e+00
4.957142e+10 0.000000000e+00 0.000000000e+00 2.538347113e-02 -1.572868415e-01 2.538347113e-02 -1.572868415e-01 0.000000000e+00 0.000000000e+00
4.963813e+10 0.000000000e+00 0.000000000e+00 2.531702157e-02 -1.570861865e-01 2.531702157e-02 -1.570861865e-01 0.000000000e+00 0.000000000e+00
4.970483e+10 0.000000000e+00 0.000000000e+00 2.525083037e-02 -1.568860285e-01 2.525083037e-02 -1.568860285e-01 0.000000000e+00 0.000000000e+00
4.977153e+10 0.000000000e+00 0.000000000e+00 2.518489617e-02 -1.566863656e-01 2.518489617e-02 -1.566863656e-01 0.000000000e+00 0.000000000e+00
4.983824e+10 0.000000000e+00 0.000000000e+00 2.511921768e-02 -1.564871962e-01 2.511921768e-02 -1.564871962e-01 0.000000000e+00 0.000000000e+00
4.990494e+10 0.000000000e+00 0.000000000e+00 2.505379357e-02 -1.562885185e-01 2.505379357e-02 -1.562885185e-01 0.000000000e+00 0.000000000e+00
4.997165e+10 0.000000000e+00 0.000000000e+00 2.498862256e-02 -1.560903306e-01 2.498862256e-02 -1.560903306e-01 0.000000000e+00 0.000000000e+00
5.003835e+10 0.000000000e+00 0.000000000e+00 2.492370334e-02 -1.558926308e-01 2.492370334e-02 -1.558926308e-01 0.000000000e+00 0.000000000e+00
5.010506e+10 0.000000000e+00 0.000000000e+00 2.485903464e-02 -1.556954175e-01 2.485903464e-02 -1.556954175e-01 0.000000000e+00 0.000000000e+00
5.017176e+10 0.000000000e+00 0.000000000e+00 2.479461517e-02 -1.554986888e-01 2.479461517e-02 -1.554986888e-01 0.000000000e+00 0.000000000e+00
5.023847e+10 0.000000000e+00 0.000000000e+00 2.473044367e-02 -1.553024431e-01 2.473044367e-02 -1.553024431e-01 0.000000000e+00 0.000000000e+00
5.030517e+10 0.000000000e+00 0.000000000e+00 2.466651888e-02 -1.551066785e-01 2.466651888e-02 -1.551066785e-01 0.000000000e+00 0.000000000e+00
5.037187e+10 0.000000000e+00 0.000000000e+00 2.460283954e-02 -1.549113935e-01 2.460283954e-02 -1.549113935e-01 0.000000000e+00 0.000000000e+00
5.043858e+10 0.000000000e+00 0.000000000e+00 2.453940442e-02 -1.547165862e-01 2.453940442e-02 -1.547165862e-01 0.000000000e+00 0.000000000e+00
5.050528e+10 0.000000000e+00 0.000000000e+00 2.447621227e-02 -1.545222551e-01 2.447621227e-02 -1.545222551e-01 0.000000000e+00 0.000000000e+00
5.057199e+10 0.000000000e+00 0.000000000e+00 2.441326187e-02 -1.543283983e-01 2.441326187e-02 -1.543283983e-01 0.000000000e+00 0.000000000e+00
5.063869e+10 0.000000000e+00 0.000000000e+00 2.435055200e-02 -1.541350142e-01 2.435055200e-02 -1.541350142e-01 0.000000000e+00 0.000000000e+00
5.070540e+10 0.000000000e+00 0.000000000e+00 2.428808144e-02 -1.539421013e-01 2.428808144e-02 -1.539421013e-01 0.000000000e+00 0.000000000e+00
5.077210e+10 0.000000000e+00 0.000000000e+00 2.422584898e-02 -1.537496576e-01 2.422584898e-02 -1.537496576e-01 0.000000000e+00 0.000000000e+00
5.083881e+10 0.000000000e+00 0.000000000e+00 2.416385344e-02 -1.535576818e-01 2.416385344e-02 -1.535576818e-01 0.000000000e+00 0.000000000e+00
5.090551e+10 0.000000000e+00 0.000000000e+00 2.410209361e-02 -1.533661719e-01 2.410209361e-02 -1.533661719e-01 0.000000000e+00 0.000000000e+00
5.097221e+10 0.000000000e+00 0.000000000e+00 2.404056832e-02 -1.531751265e-01 2.404056832e-02 -1.531751265e-01 0.000000000e+00 0.000000000e+00
5.103892e+10 0.000000000e+00 0.000000000e+00 2.397927638e-02 -1.529845439e-01 2.397927638e-02 -1.529845439e-01 0.000000000e+00 0.000000000e+00
5.110562e+10 0.000000000e+00 0.000000000e+00 2.391821663e-02 -1.527944225e-01 2.391821663e-02 -1.527944225e-01 0.000000000e+00 0.000000000e+00
5.117233e+10 0.000000000e+00 0.000000000e+00 2.385738791e-02 -1.526047606e-01 2.385738791e-02 -1.526047606e-01 0.000000000e+00 0.000000000e+00
5.123903e+10 0.000000000e+00 0.000000000e+00 2.379678907e-02 -1.524155566e-01 2.379678907e-02 -1.524155566e-01 0.000000000e+00 0.000000000e+00
5.130574e+10 0.000000000e+00 0.000000000e+00 2.373641895e-02 -1.522268090e-01 2.373641895e-02 -1.522268090e-01 0.000000000e+00 0.000000000e+00
5.137244e+10 0.000000000e+00 0.000000000e+00 2.367627641e-02 -1.520385160e-01 2.367627641e-02 -1.520385160e-01 0.000000000e+00 0.000000000e+00
5.143915e+10 0.000000000e+00 0.000000000e+00 2.361636033e-02 -1.518506762e-01 2.361636033e-02 -1.518506762e-01 0.000000000e+00 0.000000000e+00
5.150585e+10 0.000000000e+00 0.000000000e+00 2.355666958e-02 -1.516632879e-01 2.355666958e-02 -1.516632879e-01 0.000000000e+00 0.000000000e+00
5.157256e+10 0.000000000e+00 0.000000000e+00 2.349720303e-02 -1.514763496e-01 2.349720303e-02 -1.514763496e-01 0.000000000e+00 0.000000000e+00
5.163926e+10 0.000000000e+00 0.000000000e+00 2.343795958e-02 -1.512898597e-01 2.343795958e-02 -1.512898597e-01 0.000000000e+00 0.000000000e+00
5.170596e+10 0.000000000e+00 0.000000000e+00 2.337893812e-02 -1.511038165e-01 2.337893812e-02 -1.511038165e-01 0.000000000e+00 0.000000000e+00
5.177267e+10 0.000000000e+00 0.000000000e+00 2.332013755e-02 -1.509182187e-01 2.332013755e-02 -1.509182187e-01 0.000000000e+00 0.000000000e+00
5.183937e+10 0.000000000e+00 0.000000000e+00 2.326155678e-02 -1.507330646e-01 2.326155678e-02 -1.507330646e-01 0.000000000e+00 0.000000000e+00
5.190608e+10 0.000000000e+00 0.000000000e+00 2.320319473e-02 -1.505483526e-01 2.320319473e-02 -1.505483526e-01 0.000000000e+00 0.000000000e+00
5.197278e+10 0.000000000e+00 0.000000000e+00 2.314505031e-02 -1.503640813e-01 2.314505031e-02 -1.503640813e-01 0.000000000e+00 0.000000000e+00
5.203949e+10 0.000000000e+00 0.000000000e+00 2.308712245e-02 -1.501802491e-01 2.308712245e-02 -1.501802491e-01 0.000000000e+00 0.000000000e+00
5.210619e+10 0.000000000e+00 0.000000000e+00 2.302941009e-02 -1.499968545e-01 2.302941009e-02 -1.499968545e-01 0.000000000e+00 0.000000000e+00
5.217290e+10 0.000000000e+00 0.000000000e+00 2.297191217e-02 -1.498138960e-01 2.297191217e-02 -1.498138960e-01 0.000000000e+00 0.000000000e+00
5.223960e+10 0.000000000e+00 0.000000000e+00 2.291462764e-02 -1.496313720e-01 2.291462764e-02 -1.496313720e-01 0.000000000e+00 0.000000000e+00
5.230630e+10 0.000000000e+00 0.000000000e+00 2.285755544e-02 -1.494492810e-01 2.285755544e-02 -1.494492810e-01 0.000000000e+00 0.000000000e+00
5.237301e+10 0.000000000e+00 0.000000000e+00 2.280069455e-02 -1.492676217e-01 2.280069455e-02 -1.492676217e-01 0.000000000e+00 0.000000000e+00
5.243971e+10 0.000000000e+00 0.000000000e+00 2.274404392e-02 -1.490863924e-01 2.274404392e-02 -1.490863924e-01 0.000000000e+00 0.000000000e+00
5.250642e+10 0.000000000e+00 0.000000000e+00 2.268760253e-02 -1.489055916e-01 2.268760253e-02 -1.489055916e-01 0.000000000e+00 0.000000000e+00
5.257312e+10 0.000000000e+00 0.000000000e+00 2.263136936e-02 -1.487252180e-01 2.263136936e-02 -1.487252180e-01 0.000000000e+00 0.000000000e+00
5.263983e+10 0.000000000e+00 0.000000000e+00 2.257534340e-02 -1.485452701e-01 2.257534340e-02 -1.485452701e-01 0.000000000e+00 0.000000000e+00
5.270653e+10 0.000000000e+00 0.000000000e+00 2.251952363e-02 -1.483657463e-01 2.251952363e-02 -1.483657463e-01 0.000000000e+00 0.000000000e+00
5.277324e+10 0.000000000e+00 0.000000000e+00 2.246390905e-02 -1.481866453e-01 2.246390905e-02 -1.481866453e-01 0.000000000e+00 0.000000000e+00
5.283994e+10 0.000000000e+00 0.000000000e+00 2.240849866e-02 -1.480079655e-01 2.240849866e-02 -1.480079655e-01 0.000000000e+00 0.000000000e+00
5.290664e+10 0.000000000e+00 0.000000000e+00 2.235329149e-02 -1.478297056e-01 2.235329149e-02 -1.478297056e-01 0.000000000e+00 0.000000000e+00
5.297335e+10 0.000000000e+00 0.000000000e+00 2.229828653e-02 -1.476518640e-01 2.229828653e-02 -1.476518640e-01 0.000000000e+00 0.000000000e+00
5.304005e+10 0.000000000e+00 0.000000000e+00 2.224348281e-02 -1.474744394e-01 2.224348281e-02 -1.474744394e-01 0.000000000e+00 0.000000000e+00
5.310676e+10 0.000000000e+00 0.000000000e+00 2.218887936e-02 -1.472974304e-01 2.218887936e-02 -1.472974304e-01 0.000000000e+00 0.000000000e+00
5.317346e+10 0.000000000e+00 0.000000000e+00 2.213447522e-02 -1.471208354e-01 2.213447522e-02 -1.471208354e-01 0.000000000e+00 0.000000000e+00
5.324017e+10 0.000000000e+00 0.000000000e+00 2.208026941e-02 -1.469446532e-01 2.208026941e-02 -1.469446532e-01 0.000000000e+00 0.000000000e+00
5.330687e+10 0.000000000e+00 0.000000000e+00 2.202626099e-02 -1.467688823e-01 2.202626099e-02 -1.467688823e-01 0.000000000e+00 0.000000000e+00
5.337358e+10 0.000000000e+00 0.000000000e+00 2.197244900e-02 -1.465935213e-01 2.197244900e-02 -1.465935213e-01 0.000000000e+00 0.000000000e+00
5.344028e+10 0.000000000e+00 0.000000000e+00 2.191883250e-02 -1.464185688e-01 2.191883250e-02 -1.464185688e-01 0.000000000e+00 0.000000000e+00
5.350698e+10 0.000000000e+00 0.000000000e+00 2.186541056e-02 -1.462440234e-01 2.186541056e-02 -1.462440234e-01 0.000000000e+00 0.000000000e+00
5.357369e+10 0.000000000e+00 0.000000000e+00 2.181218223e-02 -1.460698837e-01 2.181218223e-02 -1.460698837e-01 0.000000000e+00 0.000000000e+00
5.364039e+10 0.000000000e+00 0.000000000e+00 2.175914659e-02 -1.458961485e-01 2.175914659e-02 -1.458961485e-01 0.000000000e+00 0.000000000e+00
5.370710e+10 0.000000000e+00 0.000000000e+00 2.170630273e-02 -1.457228162e-01 2.170630273e-02 -1.457228162e-01 0.000000000e+00 0.000000000e+00
5.377380e+10 0.000000000e+00 0.000000000e+00 2.165364972e-02 -1.455498855e-01 2.165364972e-02 -1.455498855e-01 0.000000000e+00 0.000000000e+00
5.384051e+10 0.000000000e+00 0.000000000e+00 2.160118665e-02 -1.453773551e-01 2.160118665e-02 -1.453773551e-01 0.000000000e+00 0.000000000e+00
5.390721e+10 0.000000000e+00 0.000000000e+00 2.154891261e-02 -1.452052237e-01 2.154891261e-02 -1.452052237e-01 0.000000000e+00 0.000000000e+00
5.397392e+10 0.000000000e+00 0.000000000e+00 2.149682672e-02 -1.450334898e-01 2.149682672e-02 -1.450334898e-01 0.000000000e+00 0.000000000e+00
5.404062e+10 0.000000000e+00 0.000000000e+00 2.144492806e-02 -1.448621521e-01 2.144492806e-02 -1.448621521e-01 0.000000000e+00 0.000000000e+00
5.410732e+10 0.000000000e+00 0.000000000e+00 2.139321575e-02 -1.446912094e-01 2.139321575e-02 -1.446912094e-01 0.000000000e+00 0.000000000e+00
5.417403e+10 0.000000000e+00 0.000000000e+00 2.134168892e-02 -1.445206602e-01 2.134168892e-02 -1.445206602e-01 0.000000000e+00 0.000000000e+00
5.424073e+10 0.000000000e+00 0.000000000e+00 2.129034666e-02 -1.443505033e-01 2.129034666e-02 -1.443505033e-01 0.000000000e+00 0.000000000e+00
5.430744e+10 0.000000000e+00 0.000000000e+00 2.123918813e-02 -1.441807373e-01 2.123918813e-02 -1.441807373e-01 0.000000000e+00 0.000000000e+00
5.437414e+10 0.000000000e+00 0.000000000e+00 2.118821243e-02 -1.440113610e-01 2.118821243e-02 -1.440113610e-01 0.000000000e+00 0.000000000e+00
5.444085e+10 0.000000000e+00 0.000000000e+00 2.113741872e-02 -1.438423729e-01 2.113741872e-02 -1.438423729e-01 0.000000000e+00 0.000000000e+00
5.450755e+10 0.000000000e+00 0.000000000e+00 2.108680613e-02 -1.436737719e-01 2.108680613e-02 -1.436737719e-01 0.000000000e+00 0.000000000e+00
5.457426e+10 0.000000000e+00 0.000000000e+00 2.103637381e-02 -1.435055566e-01 2.103637381e-02 -1.435055566e-01 0.000000000e+00 0.000000000e+00
5.464096e+10 0.000000000e+00 0.000000000e+00 2.098612090e-02 -1.433377258e-01 2.098612090e-02 -1.433377258e-01 0.000000000e+00 0.000000000e+00
5.470767e+10 0.000000000e+00 0.000000000e+00 2.093604657e-02 -1.431702781e-01 2.093604657e-02 -1.431702781e-01 0.000000000e+00 0.000000000e+00
5.477437e+10 0.000000000e+00 0.000000000e+00 2.088614998e-02 -1.430032123e-01 2.088614998e-02 -1.430032123e-01 0.000000000e+00 0.000000000e+00
5.484107e+10 0.000000000e+00 0.000000000e+00 2.083643029e-02 -1.428365271e-01 2.083643029e-02 -1.428365271e-01 0.000000000e+00 0.000000000e+00
5.490778e+10 0.000000000e+00 0.000000000e+00 2.078688667e-02 -1.426702212e-01 2.078688667e-02 -1.426702212e-01 0.000000000e+00 0.000000000e+00
5.497448e+10 0.000000000e+00 0.000000000e+00 2.073751830e-02 -1.425042934e-01 2.073751830e-02 -1.425042934e-01 0.000000000e+00 0.000000000e+00
5.504119e+10 0.000000000e+00 0.000000000e+00 2.068832436e-02 -1.423387424e-01 2.068832436e-02 -1.423387424e-01 0.000000000e+00 0.000000000e+00
5.510789e+10 0.000000000e+00 0.000000000e+00 2.063930404e-02 -1.421735670e-01 2.063930404e-02 -1.421735670e-01 0.000000000e+00 0.000000000e+00
5.517460e+10 0.000000000e+00 0.000000000e+00 2.059045651e-02 -1.420087660e-01 2.059045651e-02 -1.420087660e-01 0.000000000e+00 0.000000000e+00
5.524130e+10 0.000000000e+00 0.000000000e+00 2.054178099e-02 -1.418443380e-01 2.054178099e-02 -1.418443380e-01 0.000000000e+00 0.000000000e+00
5.530801e+10 0.000000000e+00 0.000000000e+00 2.049327666e-02 -1.416802819e-01 2.049327666e-02 -1.416802819e-01 0.000000000e+00 0.000000000e+00
5.537471e+10 0.000000000e+00 0.000000000e+00 2.044494274e-02 -1.415165964e-01 2.044494274e-02 -1.415165964e-01 0.000000000e+00 0.000000000e+00
5.544141e+10 0.000000000e+00 0.000000000e+00 2.039677842e-02 -1.413532803e-01 2.039677842e-02 -1.413532803e-01 0.000000000e+00 0.000000000e+00
5.550812e+10 0.000000000e+00 0.000000000e+00 2.034878293e-02 -1.411903324e-01 2.034878293e-02 -1.411903324e-01 0.000000000e+00 0.000000000e+00
5.557482e+10 0.000000000e+00 0.000000000e+00 2.030095548e-02 -1.410277515e-01 2.030095548e-02 -1.410277515e-01 0.000000000e+00 0.000000000e+00
5.564153e+10 0.000000000e+00 0.000000000e+00 2.025329529e-02 -1.408655363e-01 2.025329529e-02 -1.408655363e-01 0.000000000e+00 0.000000000e+00
5.570823e+10 0.000000000e+00 0.000000000e+00 2.020580158e-02 -1.407036857e-01 2.020580158e-02 -1.407036857e-01 0.000000000e+00 0.000000000e+00
5.577494e+10 0.000000000e+00 0.000000000e+00 2.015847360e-02 -1.405421984e-01 2.015847360e-02 -1.405421984e-01 0.000000000e+00 0.000000000e+00
5.584164e+10 0.000000000e+00 0.000000000e+00 2.011131057e-02 -1.403810734e-01 2.011131057e-02 -1.403810734e-01 0.000000000e+00 0.000000000e+00
5.590835e+10 0.000000000e+00 0.000000000e+00 2.006431174e-02 -1.402203093e-01 2.006431174e-02 -1.402203093e-01 0.000000000e+00 0.000000000e+00
5.597505e+10 0.000000000e+00 0.000000000e+00 2.001747634e-02 -1.400599050e-01 2.001747634e-02 -1.400599050e-01 0.000000000e+00 0.000000000e+00
5.604175e+10 0.000000000e+00 0.000000000e+00 1.997080364e-02 -1.398998593e-01 1.997080364e-02 -1.398998593e-01 0.000000000e+00 0.000000000e+00
5.610846e+10 0.000000000e+00 0.000000000e+00 1.992429287e-02 -1.397401711e-01 1.992429287e-02 -1.397401711e-01 0.000000000e+00 0.000000000e+00
5.617516e+10 0.000000000e+00 0.000000000e+00 1.987794329e-02 -1.395808392e-01 1.987794329e-02 -1.395808392e-01 0.000000000e+00 0.000000000e+00
5.624187e+10 0.000000000e+00 0.000000000e+00 1.983175418e-02 -1.394218624e-01 1.983175418e-02 -1.394218624e-01 0.000000000e+00 0.000000000e+00
5.630857e+10 0.000000000e+00 0.000000000e+00 1.978572478e-02 -1.392632395e-01 1.978572478e-02 -1.392632395e-01 0.000000000e+00 0.000000000e+00
5.637528e+10 0.000000000e+00 0.000000000e+00 1.973985438e-02 -1.391049695e-01 1.973985438e-02 -1.391049695e-01 0.000000000e+00 0.000000000e+00
5.644198e+10 0.000000000e+00 0.000000000e+00 1.969414224e-02 -1.389470511e-01 1.969414224e-02 -1.389470511e-01 0.000000000e+00 0.000000000e+00
5.650869e+10 0.000000000e+00 0.000000000e+00 1.964858765e-02 -1.387894832e-01 1.964858765e-02 -1.387894832e-01 0.000000000e+00 0.000000000e+00
5.657539e+10 0.000000000e+00 0.000000000e+00 1.960318988e-02 -1.386322648e-01 1.960318988e-02 -1.386322648e-01 0.000000000e+00 0.000000000e+00
5.664209e+10 0.000000000e+00 0.000000000e+00 1.955794823e-02 -1.384753945e-01 1.955794823e-02 -1.384753945e-01 0.000000000e+00 0.000000000e+00
5.670880e+10 0.000000000e+00 0.000000000e+00 1.951286197e-02 -1.383188714e-01 1.951286197e-02 -1.383188714e-01 0.000000000e+00 0.000000000e+00
5.677550e+10 0.000000000e+00 0.000000000e+00 1.946793041e-02 -1.381626943e-01 1.946793041e-02 -1.381626943e-01 0.000000000e+00 0.000000000e+00
5.684221e+10 0.000000000e+00 0.000000000e+00 1.942315284e-02 -1.380068621e-01 1.942315284e-02 -1.380068621e-01 0.000000000e+00 0.000000000e+00
5.690891e+10 0.000000000e+00 0.000000000e+00 1.937852856e-02 -1.378513736e-01 1.937852856e-02 -1.378513736e-01 0.000000000e+00 0.000000000e+00
5.697562e+10 0.000000000e+00 0.000000000e+00 1.933405689e-02 -1.376962277e-01 1.933405689e-02 -1.376962277e-01 0.000000000e+00 0.000000000e+00
5.704232e+10 0.000000000e+00 0.000000000e+00 1.928973713e-02 -1.375414235e-01 1.928973713e-02 -1.375414235e-01 0.000000000e+00 0.000000000e+00
5.710903e+10 0.000000000e+00 0.000000000e+00 1.924556858e-02 -1.373869596e-01 1.924556858e-02 -1.373869596e-01 0.000000000e+00 0.000000000e+00
5.717573e+10 0.000000000e+00 0.000000000e+00 1.920155058e-02 -1.372328351e-01 1.920155058e-02 -1.372328351e-01 0.000000000e+00 0.000000000e+00
5.724243e+10 0.000000000e+00 0.000000000e+00 1.915768244e-02 -1.370790489e-01 1.915768244e-02 -1.370790489e-01 0.000000000e+00 0.000000000e+00
5.730914e+10 0.000000000e+00 0.000000000e+00 1.911396349e-02 -1.369255998e-01 1.911396349e-02 -1.369255998e-01 0.000000000e+00 0.000000000e+00
5.737584e+10 0.000000000e+00 0.000000000e+00 1.907039305e-02 -1.367724869e-01 1.907039305e-02 -1.367724869e-01 0.000000000e+00 0.000000000e+00
5.744255e+10 0.000000000e+00 0.000000000e+00 1.902697047e-02 -1.366197089e-01 1.902697047e-02 -1.366197089e-01 0.000000000e+00 0.000000000e+00
5.750925e+10 0.000000000e+00 0.000000000e+00 1.898369506e-02 -1.364672649e-01 1.898369506e-02 -1.364672649e-01 0.000000000e+00 0.000000000e+00
5.757596e+10 0.000000000e+00 0.000000000e+00 1.894056618e-02 -1.363151537e-01 1.894056618e-02 -1.363151537e-01 0.000000000e+00 0.000000000e+00
5.764266e+10 0.000000000e+00 0.000000000e+00 1.889758317e-02 -1.361633744e-01 1.889758317e-02 -1.361633744e-01 0.000000000e+00 0.000000000e+00
5.770937e+10 0.000000000e+00 0.000000000e+00 1.885474537e-02 -1.360119258e-01 1.885474537e-02 -1.360119258e-01 0.000000000e+00 0.000000000e+00
5.777607e+10 0.000000000e+00 0.000000000e+00 1.881205214e-02 -1.358608068e-01 1.881205214e-02 -1.358608068e-01 0.000000000e+00 0.000000000e+00
5.784278e+10 0.000000000e+00 0.000000000e+00 1.876950283e-02 -1.357100165e-01 1.876950283e-02 -1.357100165e-01 0.000000000e+00 0.000000000e+00
5.790948e+10 0.000000000e+00 0.000000000e+00 1.872709680e-02 -1.355595539e-01 1.872709680e-02 -1.355595539e-01 0.000000000e+00 0.000000000e+00
5.797618e+10 0.000000000e+00 0.000000000e+00 1.868483340e-02 -1.354094177e-01 1.868483340e-02 -1.354094177e-01 0.000000000e+00 0.000000000e+00
5.804289e+10 0.000000000e+00 0.000000000e+00 1.864271201e-02 -1.352596071e-01 1.864271201e-02 -1.352596071e-01 0.000000000e+00 0.000000000e+00
5.810959e+10 0.000000000e+00 0.000000000e+00 1.860073200e-02 -1.351101209e-01 1.860073200e-02 -1.351101209e-01 0.000000000e+00 0.000000000e+00
5.817630e+10 0.000000000e+00 0.000000000e+00 1.855889273e-02 -1.349609582e-01 1.855889273e-02 -1.349609582e-01 0.000000000e+00 0.000000000e+00
5.824300e+10 0.000000000e+00 0.000000000e+00 1.851719358e-02 -1.348121179e-01 1.851719358e-02 -1.348121179e-01 0.000000000e+00 0.000000000e+00
5.830971e+10 0.000000000e+00 0.000000000e+00 1.847563394e-02 -1.346635990e-01 1.847563394e-02 -1.346635990e-01 0.000000000e+00 0.000000000e+00
5.837641e+10 0.000000000e+00 0.000000000e+00 1.843421317e-02 -1.345154005e-01 1.843421317e-02 -1.345154005e-01 0.000000000e+00 0.000000000e+00
5.844312e+10 0.000000000e+00 0.000000000e+00 1.839293068e-02 -1.343675213e-01 1.839293068e-02 -1.343675213e-01 0.000000000e+00 0.000000000e+00
5.850982e+10 0.000000000e+00 0.000000000e+00 1.835178584e-02 -1.342199605e-01 1.835178584e-02 -1.342199605e-01 0.000000000e+00 0.000000000e+00
5.857652e+10 0.000000000e+00 0.000000000e+00 1.831077805e-02 -1.340727171e-01 1.831077805e-02 -1.340727171e-01 0.000000000e+00 0.000000000e+00
5.864323e+10 0.000000000e+00 0.000000000e+00 1.826990671e-02 -1.339257900e-01 1.826990671e-02 -1.339257900e-01 0.000000000e+00 0.000000000e+00
5.870993e+10 0.000000000e+00 0.000000000e+00 1.822917122e-02 -1.337791782e-01 1.822917122e-02 -1.337791782e-01 0.000000000e+00 0.000000000e+00
5.877664e+10 0.000000000e+00 0.000000000e+00 1.818857097e-02 -1.336328809e-01 1.818857097e-02 -1.336328809e-01 0.000000000e+00 0.000000000e+00
5.884334e+10 0.000000000e+00 0.000000000e+00 1.814810537e-02 -1.334868969e-01 1.814810537e-02 -1.334868969e-01 0.000000000e+00 0.000000000e+00
5.891005e+10 0.000000000e+00 0.000000000e+00 1.810777384e-02 -1.333412253e-01 1.810777384e-02 -1.333412253e-01 0.000000000e+00 0.000000000e+00
5.897675e+10 0.000000000e+00 0.000000000e+00 1.806757578e-02 -1.331958651e-01 1.806757578e-02 -1.331958651e-01 0.000000000e+00 0.000000000e+00
5.904346e+10 0.000000000e+00 0.000000000e+00 1.802751061e-02 -1.330508154e-01 1.802751061e-02 -1.330508154e-01 0.000000000e+00 0.000000000e+00
5.911016e+10 0.000000000e+00 0.000000000e+00 1.798757775e-02 -1.329060751e-01 1.798757775e-02 -1.329060751e-01 0.000000000e+00 0.000000000e+00
5.917686e+10 0.000000000e+00 0.000000000e+00 1.794777662e-02 -1.327616433e-01 1.794777662e-02 -1.327616433e-01 0.000000000e+00 0.000000000e+00
5.924357e+10 0.000000000e+00 0.000000000e+00 1.790810664e-02 -1.326175191e-01 1.790810664e-02 -1.326175191e-01 0.000000000e+00 0.000000000e+00
5.931027e+10 0.000000000e+00 0.000000000e+00 1.786856725e-02 -1.324737014e-01 1.786856725e-02 -1.324737014e-01 0.000000000e+00 0.000000000e+00
5.937698e+10 0.000000000e+00 0.000000000e+00 1.782915787e-02 -1.323301893e-01 1.782915787e-02 -1.323301893e-01 0.000000000e+00 0.000000000e+00
5.944368e+10 0.000000000e+00 0.000000000e+00 1.778987794e-02 -1.321869819e-01 1.778987794e-02 -1.321869819e-01 0.000000000e+00 0.000000000e+00
5.951039e+10 0.000000000e+00 0.000000000e+00 1.775072689e-02 -1.320440782e-01 1.775072689e-02 -1.320440782e-01 0.000000000e+00 0.000000000e+00
5.957709e+10 0.000000000e+00 0.000000000e+00 1.771170417e-02 -1.319014773e-01 1.771170417e-02 -1.319014773e-01 0.000000000e+00 0.000000000e+00
5.964380e+10 0.000000000e+00 0.000000000e+00 1.767280922e-02 -1.317591782e-01 1.767280922e-02 -1.317591782e-01 0.000000000e+00 0.000000000e+00
5.971050e+10 0.000000000e+00 0.000000000e+00 1.763404148e-02 -1.316171800e-01 1.763404148e-02 -1.316171800e-01 0.000000000e+00 0.000000000e+00
5.977720e+10 0.000000000e+00 0.000000000e+00 1.759540041e-02 -1.314754817e-01 1.759540041e-02 -1.314754817e-01 0.000000000e+00 0.000000000e+00
5.984391e+10 0.000000000e+00 0.000000000e+00 1.755688545e-02 -1.313340825e-01 1.755688545e-02 -1.313340825e-01 0.000000000e+00 0.000000000e+00
5.991061e+10 0.000000000e+00 0.000000000e+00 1.751849606e-02 -1.311929814e-01 1.751849606e-02 -1.311929814e-01 0.000000000e+00 0.000000000e+00
5.997732e+10 0.000000000e+00 0.000000000e+00 1.748023170e-02 -1.310521774e-01 1.748023170e-02 -1.310521774e-01 0.000000000e+00 0.000000000e+00
6.004402e+10 0.000000000e+00 0.000000000e+00 1.744209183e-02 -1.309116697e-01 1.744209183e-02 -1.309116697e-01 0.000000000e+00 0.000000000e+00
6.011073e+10 0.000000000e+00 0.000000000e+00 1.740407592e-02 -1.307714574e-01 1.740407592e-02 -1.307714574e-01 0.000000000e+00 0.000000000e+00
6.017743e+10 0.000000000e+00 0.000000000e+00 1.736618342e-02 -1.306315394e-01 1.736618342e-02 -1.306315394e-01 0.000000000e+00 0.000000000e+00
6.024414e+10 0.000000000e+00 0.000000000e+00 1.732841382e-02 -1.304919151e-01 1.732841382e-02 -1.304919151e-01 0.000000000e+00 0.000000000e+00
6.031084e+10 0.000000000e+00 0.000000000e+00 1.729076658e-02 -1.303525833e-01 1.729076658e-02 -1.303525833e-01 0.000000000e+00 0.000000000e+00
6.037755e+10 0.000000000e+00 0.000000000e+00 1.725324117e-02 -1.302135432e-01 1.725324117e-02 -1.302135432e-01 0.000000000e+00 0.000000000e+00
6.044425e+10 0.000000000e+00 0.000000000e+00 1.721583709e-02 -1.300747940e-01 1.721583709e-02 -1.300747940e-01 0.000000000e+00 0.000000000e+00
6.051095e+10 0.000000000e+00 0.000000000e+00 1.717855379e-02 -1.299363347e-01 1.717855379e-02 -1.299363347e-01 0.000000000e+00 0.000000000e+00
6.057766e+10 0.000000000e+00 0.000000000e+00 1.714139078e-02 -1.297981645e-01 1.714139078e-02 -1.297981645e-01 0.000000000e+00 0.000000000e+00
6.064436e+10 0.000000000e+00 0.000000000e+00 1.710434753e-02 -1.296602824e-01 1.710434753e-02 -1.296602824e-01 0.000000000e+00 0.000000000e+00
6.071107e+10 0.000000000e+00 0.000000000e+00 1.706742354e-02 -1.295226876e-01 1.706742354e-02 -1.295226876e-01 0.000000000e+00 0.000000000e+00
6.077777e+10 0.000000000e+00 0.000000000e+00 1.703061829e-02 -1.293853791e-01 1.703061829e-02 -1.293853791e-01 0.000000000e+00 0.000000000e+00
6.084448e+10 0.000000000e+00 0.000000000e+00 1.699393129e-02 -1.292483562e-01 1.699393129e-02 -1.292483562e-01 0.000000000e+00 0.000000000e+00
6.091118e+10 0.000000000e+00 0.000000000e+00 1.695736202e-02 -1.291116180e-01 1.695736202e-02 -1.291116180e-01 0.000000000e+00 0.000000000e+00
6.097789e+10 0.000000000e+00 0.000000000e+00 1.692090999e-02 -1.289751635e-01 1.692090999e-02 -1.289751635e-01 0.000000000e+00 0.000000000e+00
6.104459e+10 0.000000000e+00 0.000000000e+00 1.688457470e-02 -1.288389919e-01 1.688457470e-02 -1.288389919e-01 0.000000000e+00 0.000000000e+00
6.111129e+10 0.000000000e+00 0.000000000e+00 1.684835566e-02 -1.287031024e-01 1.684835566e-02 -1.287031024e-01 0.000000000e+00 0.000000000e+00
6.117800e+10 0.000000000e+00 0.000000000e+00 1.681225236e-02 -1.285674941e-01 1.681225236e-02 -1.285674941e-01 0.000000000e+00 0.000000000e+00
6.124470e+10 0.000000000e+00 0.000000000e+00 1.677626433e-02 -1.284321661e-01 1.677626433e-02 -1.284321661e-01 0.000000000e+00 0.000000000e+00
6.131141e+10 0.000000000e+00 0.000000000e+00 1.674039108e-02 -1.282971176e-01 1.674039108e-02 -1.282971176e-01 0.000000000e+00 0.000000000e+00
6.137811e+10 0.000000000e+00 0.000000000e+00 1.670463211e-02 -1.281623477e-01 1.670463211e-02 -1.281623477e-01 0.000000000e+00 0.000000000e+00
6.144482e+10 0.000000000e+00 0.000000000e+00 1.666898695e-02 -1.280278557e-01 1.666898695e-02 -1.280278557e-01 0.000000000e+00 0.000000000e+00
6.151152e+10 0.000000000e+00 0.000000000e+00 1.663345513e-02 -1.278936406e-01 1.663345513e-02 -1.278936406e-01 0.000000000e+00 0.000000000e+00
6.157823e+10 0.000000000e+00 0.000000000e+00 1.659803615e-02 -1.277597016e-01 1.659803615e-02 -1.277597016e-01 0.000000000e+00 0.000000000e+00
6.164493e+10 0.000000000e+00 0.000000000e+00 1.656272955e-02 -1.276260379e-01 1.656272955e-02 -1.276260379e-01 0.000000000e+00 0.000000000e+00
6.171163e+10 0.000000000e+00 0.000000000e+00 1.652753485e-02 -1.274926486e-01 1.652753485e-02 -1.274926486e-01 0.000000000e+00 0.000000000e+00
6.177834e+10 0.000000000e+00 0.000000000e+00 1.649245159e-02 -1.273595329e-01 1.649245159e-02 -1.273595329e-01 0.000000000e+00 0.000000000e+00
6.184504e+10 0.000000000e+00 0.000000000e+00 1.645747930e-02 -1.272266901e-01 1.645747930e-02 -1.272266901e-01 0.000000000e+00 0.000000000e+00
6.191175e+10 0.000000000e+00 0.000000000e+00 1.642261751e-02 -1.270941192e-01 1.642261751e-02 -1.270941192e-01 0.000000000e+00 0.000000000e+00
6.197845e+10 0.000000000e+00 0.000000000e+00 1.638786575e-02 -1.269618195e-01 1.638786575e-02 -1.269618195e-01 0.000000000e+00 0.000000000e+00
6.204516e+10 0.000000000e+00 0.000000000e+00 1.635322358e-02 -1.268297901e-01 1.635322358e-02 -1.268297901e-01 0.000000000e+00 0.000000000e+00
6.211186e+10 0.000000000e+00 0.000000000e+00 1.631869054e-02 -1.266980303e-01 1.631869054e-02 -1.266980303e-01 0.000000000e+00 0.000000000e+00
6.217857e+10 0.000000000e+00 0.000000000e+00 1.628426615e-02 -1.265665391e-01 1.628426615e-02 -1.265665391e-01 0.000000000e+00 0.000000000e+00
6.224527e+10 0.000000000e+00 0.000000000e+00 1.624994999e-02 -1.264353159e-01 1.624994999e-02 -1.264353159e-01 0.000000000e+00 0.000000000e+00
6.231197e+10 0.000000000e+00 0.000000000e+00 1.621574158e-02 -1.263043598e-01 1.621574158e-02 -1.263043598e-01 0.000000000e+00 0.000000000e+00
6.237868e+10 0.000000000e+00 0.000000000e+00 1.618164050e-02 -1.261736700e-01 1.618164050e-02 -1.261736700e-01 0.000000000e+00 0.000000000e+00
6.244538e+10 0.000000000e+00 0.000000000e+00 1.614764628e-02 -1.260432458e-01 1.614764628e-02 -1.260432458e-01 0.000000000e+00 0.000000000e+00
6.251209e+10 0.000000000e+00 0.000000000e+00 1.611375849e-02 -1.259130862e-01 1.611375849e-02 -1.259130862e-01 0.000000000e+00 0.000000000e+00
6.257879e+10 0.000000000e+00 0.000000000e+00 1.607997668e-02 -1.257831906e-01 1.607997668e-02 -1.257831906e-01 0.000000000e+00 0.000000000e+00
6.264550e+10 0.000000000e+00 0.000000000e+00 1.604630042e-02 -1.256535581e-01 1.604630042e-02 -1.256535581e-01 0.000000000e+00 0.000000000e+00
6.271220e+10 0.000000000e+00 0.000000000e+00 1.601272927e-02 -1.255241880e-01 1.601272927e-02 -1.255241880e-01 0.000000000e+00 0.000000000e+00
6.277891e+10 0.000000000e+00 0.000000000e+00 1.597926279e-02 -1.253950794e-01 1.597926279e-02 -1.253950794e-01 0.000000000e+00 0.000000000e+00
6.284561e+10 0.000000000e+00 0.000000000e+00 1.594590055e-02 -1.252662317e-01 1.594590055e-02 -1.252662317e-01 0.000000000e+00 0.000000000e+00
6.291231e+10 0.000000000e+00 0.000000000e+00 1.591264213e-02 -1.251376440e-01 1.591264213e-02 -1.251376440e-01 0.000000000e+00 0.000000000e+00
6.297902e+10 0.000000000e+00 0.000000000e+00 1.587948709e-02 -1.250093156e-01 1.587948709e-02 -1.250093156e-01 0.000000000e+00 0.000000000e+00
6.304572e+10 0.000000000e+00 0.000000000e+00 1.584643501e-02 -1.248812456e-01 1.584643501e-02 -1.248812456e-01 0.000000000e+00 0.000000000e+00
6.311243e+10 0.000000000e+00 0.000000000e+00 1.581348546e-02 -1.247534334e-01 1.581348546e-02 -1.247534334e-01 0.000000000e+00 0.000000000e+00
6.317913e+10 0.000000000e+00 0.000000000e+00 1.578063802e-02 -1.246258781e-01 1.578063802e-02 -1.246258781e-01 0.000000000e+00 0.000000000e+00
6.324584e+10 0.000000000e+00 0.000000000e+00 1.574789228e-02 -1.244985790e-01 1.574789228e-02 -1.244985790e-01 0.000000000e+00 0.000000000e+00
6.331254e+10 0.000000000e+00 0.000000000e+00 1.571524782e-02 -1.243715353e-01 1.571524782e-02 -1.243715353e-01 0.000000000e+00 0.000000000e+00
6.337925e+10 0.000000000e+00 0.000000000e+00 1.568270422e-02 -1.242447464e-01 1.568270422e-02 -1.242447464e-01 0.000000000e+00 0.000000000e+00
6.344595e+10 0.000000000e+00 0.000000000e+00 1.565026107e-02 -1.241182114e-01 1.565026107e-02 -1.241182114e-01 0.000000000e+00 0.000000000e+00
6.351266e+10 0.000000000e+00 0.000000000e+00 1.561791795e-02 -1.239919295e-01 1.561791795e-02 -1.239919295e-01 0.000000000e+00 0.000000000e+00
6.357936e+10 0.000000000e+00 0.000000000e+00 1.558567447e-02 -1.238659001e-01 1.558567447e-02 -1.238659001e-01 0.000000000e+00 0.000000000e+00
6.364606e+10 0.000000000e+00 0.000000000e+00 1.555353021e-02 -1.237401225e-01 1.555353021e-02 -1.237401225e-01 0.000000000e+00 0.000000000e+00
6.371277e+10 0.000000000e+00 0.000000000e+00 1.552148476e-02 -1.236145957e-01 1.552148476e-02 -1.236145957e-01 0.000000000e+00 0.000000000e+00
6.377947e+10 0.000000000e+00 0.000000000e+00 1.548953774e-02 -1.234893192e-01 1.548953774e-02 -1.234893192e-01 0.000000000e+00 0.000000000e+00
6.384618e+10 0.000000000e+00 0.000000000e+00 1.545768873e-02 -1.233642922e-01 1.545768873e-02 -1.233642922e-01 0.000000000e+00 0.000000000e+00
6.391288e+10 0.000000000e+00 0.000000000e+00 1.542593733e-02 -1.232395139e-01 1.542593733e-02 -1.232395139e-01 0.000000000e+00 0.000000000e+00
6.397959e+10 0.000000000e+00 0.000000000e+00 1.539428316e-02 -1.231149837e-01 1.539428316e-02 -1.231149837e-01 0.000000000e+00 0.000000000e+00
6.404629e+10 0.000000000e+00 0.000000000e+00 1.536272582e-02 -1.229907008e-01 1.536272582e-02 -1.229907008e-01 0.000000000e+00 0.000000000e+00
6.411300e+10 0.000000000e+00 0.000000000e+00 1.533126490e-02 -1.228666644e-01 1.533126490e-02 -1.228666644e-01 0.000000000e+00 0.000000000e+00
6.417970e+10 0.000000000e+00 0.000000000e+00 1.529990004e-02 -1.227428739e-01 1.529990004e-02 -1.227428739e-01 0.000000000e+00 0.000000000e+00
6.424640e+10 0.000000000e+00 0.000000000e+00 1.526863082e-02 -1.226193286e-01 1.526863082e-02 -1.226193286e-01 0.000000000e+00 0.000000000e+00
6.431311e+10 0.000000000e+00 0.000000000e+00 1.523745688e-02 -1.224960276e-01 1.523745688e-02 -1.224960276e-01 0.000000000e+00 0.000000000e+00
6.437981e+10 0.000000000e+00 0.000000000e+00 1.520637782e-02 -1.223729704e-01 1.520637782e-02 -1.223729704e-01 0.000000000e+00 0.000000000e+00
6.444652e+10 0.000000000e+00 0.000000000e+00 1.517539326e-02 -1.222501562e-01 1.517539326e-02 -1.222501562e-01 0.000000000e+00 0.000000000e+00
6.451322e+10 0.000000000e+00 0.000000000e+00 1.514450282e-02 -1.221275843e-01 1.514450282e-02 -1.221275843e-01 0.000000000e+00 0.000000000e+00
6.457993e+10 0.000000000e+00 0.000000000e+00 1.511370612e-02 -1.220052540e-01 1.511370612e-02 -1.220052540e-01 0.000000000e+00 0.000000000e+00
6.464663e+10 0.000000000e+00 0.000000000e+00 1.508300279e-02 -1.218831646e-01 1.508300279e-02 -1.218831646e-01 0.000000000e+00 0.000000000e+00
6.471334e+10 0.000000000e+00 0.000000000e+00 1.505239244e-02 -1.217613154e-01 1.505239244e-02 -1.217613154e-01 0.000000000e+00 0.000000000e+00
6.478004e+10 0.000000000e+00 0.000000000e+00 1.502187472e-02 -1.216397057e-01 1.502187472e-02 -1.216397057e-01 0.000000000e+00 0.000000000e+00
6.484674e+10 0.000000000e+00 0.000000000e+00 1.499144923e-02 -1.215183348e-01 1.499144923e-02 -1.215183348e-01 0.000000000e+00 0.000000000e+00
6.491345e+10 0.000000000e+00 0.000000000e+00 1.496111563e-02 -1.213972020e-01 1.496111563e-02 -1.213972020e-01 0.000000000e+00 0.000000000e+00
6.498015e+10 0.000000000e+00 0.000000000e+00 1.493087353e-02 -1.212763066e-01 1.493087353e-02 -1.212763066e-01 0.000000000e+00 0.000000000e+00
6.504686e+10 0.000000000e+00 0.000000000e+00 1.490072257e-02 -1.211556480e-01 1.490072257e-02 -1.211556480e-01 0.000000000e+00 0.000000000e+00
6.511356e+10 0.000000000e+00 0.000000000e+00 1.487066240e-02 -1.210352254e-01 1.487066240e-02 -1.210352254e-01 0.000000000e+00 0.000000000e+00
6.518027e+10 0.000000000e+00 0.000000000e+00 1.484069263e-02 -1.209150383e-01 1.484069263e-02 -1.209150383e-01 0.000000000e+00 0.000000000e+00
6.524697e+10 0.000000000e+00 0.000000000e+00 1.481081293e-02 -1.207950858e-01 1.481081293e-02 -1.207950858e-01 0.000000000e+00 0.000000000e+00
6.531368e+10 0.000000000e+00 0.000000000e+00 1.478102292e-02 -1.206753673e-01 1.478102292e-02 -1.206753673e-01 0.000000000e+00 0.000000000e+00
6.538038e+10 0.000000000e+00 0.000000000e+00 1.475132225e-02 -1.205558822e-01 1.475132225e-02 -1.205558822e-01 0.000000000e+00 0.000000000e+00
6.544708e+10 0.000000000e+00 0.000000000e+00 1.472171056e-02 -1.204366298e-01 1.472171056e-02 -1.204366298e-01 0.000000000e+00 0.000000000e+00
6.551379e+10 0.000000000e+00 0.000000000e+00 1.469218751e-02 -1.203176094e-01 1.469218751e-02 -1.203176094e-01 0.000000000e+00 0.000000000e+00
6.558049e+10 0.000000000e+00 0.000000000e+00 1.466275274e-02 -1.201988204e-01 1.466275274e-02 -1.201988204e-01 0.000000000e+00 0.000000000e+00
6.564720e+10 0.000000000e+00 0.000000000e+00 1.463340590e-02 -1.200802620e-01 1.463340590e-02 -1.200802620e-01 0.000000000e+00 0.000000000e+00
6.571390e+10 0.000000000e+00 0.000000000e+00 1.460414664e-02 -1.199619337e-01 1.460414664e-02 -1.199619337e-01 0.000000000e+00 0.000000000e+00
6.578061e+10 0.000000000e+00 0.000000000e+00 1.457497461e-02 -1.198438347e-01 1.457497461e-02 -1.198438347e-01 0.000000000e+00 0.000000000e+00
6.584731e+10 0.000000000e+00 0.000000000e+00 1.454588948e-02 -1.197259645e-01 1.454588948e-02 -1.197259645e-01 0.000000000e+00 0.000000000e+00
6.591402e+10 0.000000000e+00 0.000000000e+00 1.451689089e-02 -1.196083223e-01 1.451689089e-02 -1.196083223e-01 0.000000000e+00 0.000000000e+00
6.598072e+10 0.000000000e+00 0.000000000e+00 1.448797851e-02 -1.194909076e-01 1.448797851e-02 -1.194909076e-01 0.000000000e+00 0.000000000e+00
6.604742e+10 0.000000000e+00 0.000000000e+00 1.445915200e-02 -1.193737196e-01 1.445915200e-02 -1.193737196e-01 0.000000000e+00 0.000000000e+00
6.611413e+10 0.000000000e+00 0.000000000e+00 1.443041102e-02 -1.192567577e-01 1.443041102e-02 -1.192567577e-01 0.000000000e+00 0.000000000e+00
6.618083e+10 0.000000000e+00 0.000000000e+00 1.440175523e-02 -1.191400213e-01 1.440175523e-02 -1.191400213e-01 0.000000000e+00 0.000000000e+00
6.624754e+10 0.000000000e+00 0.000000000e+00 1.437318429e-02 -1.190235097e-01 1.437318429e-02 -1.190235097e-01 0.000000000e+00 0.000000000e+00
6.631424e+10 0.000000000e+00 0.000000000e+00 1.434469788e-02 -1.189072223e-01 1.434469788e-02 -1.189072223e-01 0.000000000e+00 0.000000000e+00
6.638095e+10 0.000000000e+00 0.000000000e+00 1.431629567e-02 -1.187911585e-01 1.431629567e-02 -1.187911585e-01 0.000000000e+00 0.000000000e+00
6.644765e+10 0.000000000e+00 0.000000000e+00 1.428797732e-02 -1.186753177e-01 1.428797732e-02 -1.186753177e-01 0.000000000e+00 0.000000000e+00
6.651436e+10 0.000000000e+00 0.000000000e+00 1.425974250e-02 -1.185596991e-01 1.425974250e-02 -1.185596991e-01 0.000000000e+00 0.000000000e+00
6.658106e+10 0.000000000e+00 0.000000000e+00 1.423159089e-02 -1.184443022e-01 1.423159089e-02 -1.184443022e-01 0.000000000e+00 0.000000000e+00
6.664777e+10 0.000000000e+00 0.000000000e+00 1.420352217e-02 -1.183291263e-01 1.420352217e-02 -1.183291263e-01 0.000000000e+00 0.000000000e+00
6.671447e+10 0.000000000e+00 0.000000000e+00 1.417553601e-02 -1.182141708e-01 1.417553601e-02 -1.182141708e-01 0.000000000e+00 0.000000000e+00
6.678117e+10 0.000000000e+00 0.000000000e+00 1.414763208e-02 -1.180994352e-01 1.414763208e-02 -1.180994352e-01 0.000000000e+00 0.000000000e+00
6.684788e+10 0.000000000e+00 0.000000000e+00 1.411981007e-02 -1.179849187e-01 1.411981007e-02 -1.179849187e-01 0.000000000e+00 0.000000000e+00
6.691458e+10 0.000000000e+00 0.000000000e+00 1.409206967e-02 -1.178706208e-01 1.409206967e-02 -1.178706208e-01 0.000000000e+00 0.000000000e+00
6.698129e+10 0.000000000e+00 0.000000000e+00 1.406441054e-02 -1.177565408e-01 1.406441054e-02 -1.177565408e-01 0.000000000e+00 0.000000000e+00
6.704799e+10 0.000000000e+00 0.000000000e+00 1.403683238e-02 -1.176426781e-01 1.403683238e-02 -1.176426781e-01 0.000000000e+00 0.000000000e+00
6.711470e+10 0.000000000e+00 0.000000000e+00 1.400933487e-02 -1.175290322e-01 1.400933487e-02 -1.175290322e-01 0.000000000e+00 0.000000000e+00
6.718140e+10 0.000000000e+00 0.000000000e+00 1.398191770e-02 -1.174156024e-01 1.398191770e-02 -1.174156024e-01 0.000000000e+00 0.000000000e+00
6.724811e+10 0.000000000e+00 0.000000000e+00 1.395458056e-02 -1.173023880e-01 1.395458056e-02 -1.173023880e-01 0.000000000e+00 0.000000000e+00
6.731481e+10 0.000000000e+00 0.000000000e+00 1.392732314e-02 -1.171893886e-01 1.392732314e-02 -1.171893886e-01 0.000000000e+00 0.000000000e+00
6.738151e+10 0.000000000e+00 0.000000000e+00 1.390014513e-02 -1.170766035e-01 1.390014513e-02 -1.170766035e-01 0.000000000e+00 0.000000000e+00
6.744822e+10 0.000000000e+00 0.000000000e+00 1.387304622e-02 -1.169640321e-01 1.387304622e-02 -1.169640321e-01 0.000000000e+00 0.000000000e+00
6.751492e+10 0.000000000e+00 0.000000000e+00 1.384602611e-02 -1.168516738e-01 1.384602611e-02 -1.168516738e-01 0.000000000e+00 0.000000000e+00
6.758163e+10 0.000000000e+00 0.000000000e+00 1.381908449e-02 -1.167395280e-01 1.381908449e-02 -1.167395280e-01 0.000000000e+00 0.000000000e+00
6.764833e+10 0.000000000e+00 0.000000000e+00 1.379222107e-02 -1.166275941e-01 1.379222107e-02 -1.166275941e-01 0.000000000e+00 0.000000000e+00
6.771504e+10 0.000000000e+00 0.000000000e+00 1.376543553e-02 -1.165158715e-01 1.376543553e-02 -1.165158715e-01 0.000000000e+00 0.000000000e+00
6.778174e+10 0.000000000e+00 0.000000000e+00 1.373872759e-02 -1.164043597e-01 1.373872759e-02 -1.164043597e-01 0.000000000e+00 0.000000000e+00
6.784845e+10 0.000000000e+00 0.000000000e+00 1.371209695e-02 -1.162930580e-01 1.371209695e-02 -1.162930580e-01 0.000000000e+00 0.000000000e+00
6.791515e+10 0.000000000e+00 0.000000000e+00 1.368554330e-02 -1.161819659e-01 1.368554330e-02 -1.161819659e-01 0.000000000e+00 0.000000000e+00
6.798185e+10 0.000000000e+00 0.000000000e+00 1.365906635e-02 -1.160710828e-01 1.365906635e-02 -1.160710828e-01 0.000000000e+00 0.000000000e+00
6.804856e+10 0.000000000e+00 0.000000000e+00 1.363266581e-02 -1.159604081e-01 1.363266581e-02 -1.159604081e-01 0.000000000e+00 0.000000000e+00
6.811526e+10 0.000000000e+00 0.000000000e+00 1.360634139e-02 -1.158499411e-01 1.360634139e-02 -1.158499411e-01 0.000000000e+00 0.000000000e+00
6.818197e+10 0.000000000e+00 0.000000000e+00 1.358009279e-02 -1.157396815e-01 1.358009279e-02 -1.157396815e-01 0.000000000e+00 0.000000000e+00
6.824867e+10 0.000000000e+00 0.000000000e+00 1.355391973e-02 -1.156296285e-01 1.355391973e-02 -1.156296285e-01 0.000000000e+00 0.000000000e+00
6.831538e+10 0.000000000e+00 0.000000000e+00 1.352782192e-02 -1.155197816e-01 1.352782192e-02 -1.155197816e-01 0.000000000e+00 0.000000000e+00
6.838208e+10 0.000000000e+00 0.000000000e+00 1.350179906e-02 -1.154101403e-01 1.350179906e-02 -1.154101403e-01 0.000000000e+00 0.000000000e+00
6.844879e+10 0.000000000e+00 0.000000000e+00 1.347585089e-02 -1.153007039e-01 1.347585089e-02 -1.153007039e-01 0.000000000e+00 0.000000000e+00
6.851549e+10 0.000000000e+00 0.000000000e+00 1.344997710e-02 -1.151914720e-01 1.344997710e-02 -1.151914720e-01 0.000000000e+00 0.000000000e+00
6.858219e+10 0.000000000e+00 0.000000000e+00 1.342417742e-02 -1.150824438e-01 1.342417742e-02 -1.150824438e-01 0.000000000e+00 0.000000000e+00
6.864890e+10 0.000000000e+00 0.000000000e+00 1.339845157e-02 -1.149736190e-01 1.339845157e-02 -1.149736190e-01 0.000000000e+00 0.000000000e+00
6.871560e+10 0.000000000e+00 0.000000000e+00 1.337279926e-02 -1.148649968e-01 1.337279926e-02 -1.148649968e-01 0.000000000e+00 0.000000000e+00
6.878231e+10 0.000000000e+00 0.000000000e+00 1.334722022e-02 -1.147565769e-01 1.334722022e-02 -1.147565769e-01 0.000000000e+00 0.000000000e+00
6.884901e+10 0.000000000e+00 0.000000000e+00 1.332171417e-02 -1.146483585e-01 1.332171417e-02 -1.146483585e-01 0.000000000e+00 0.000000000e+00
6.891572e+10 0.000000000e+00 0.000000000e+00 1.329628084e-02 -1.145403412e-01 1.329628084e-02 -1.145403412e-01 0.000000000e+00 0.000000000e+00
6.898242e+10 0.000000000e+00 0.000000000e+00 1.327091994e-02 -1.144325243e-01 1.327091994e-02 -1.144325243e-01 0.000000000e+00 0.000000000e+00
6.904913e+10 0.000000000e+00 0.000000000e+00 1.324563121e-02 -1.143249075e-01 1.324563121e-02 -1.143249075e-01 0.000000000e+00 0.000000000e+00
6.911583e+10 0.000000000e+00 0.000000000e+00 1.322041438e-02 -1.142174900e-01 1.322041438e-02 -1.142174900e-01 0.000000000e+00 0.000000000e+00
6.918254e+10 0.000000000e+00 0.000000000e+00 1.319526916e-02 -1.141102714e-01 1.319526916e-02 -1.141102714e-01 0.000000000e+00 0.000000000e+00
6.924924e+10 0.000000000e+00 0.000000000e+00 1.317019530e-02 -1.140032511e-01 1.317019530e-02 -1.140032511e-01 0.000000000e+00 0.000000000e+00
6.931594e+10 0.000000000e+00 0.000000000e+00 1.314519253e-02 -1.138964286e-01 1.314519253e-02 -1.138964286e-01 0.000000000e+00 0.000000000e+00
6.938265e+10 0.000000000e+00 0.000000000e+00 1.312026057e-02 -1.137898033e-01 1.312026057e-02 -1.137898033e-01 0.000000000e+00 0.000000000e+00
6.944935e+10 0.000000000e+00 0.000000000e+00 1.309539916e-02 -1.136833747e-01 1.309539916e-02 -1.136833747e-01 0.000000000e+00 0.000000000e+00
6.951606e+10 0.000000000e+00 0.000000000e+00 1.307060803e-02 -1.135771422e-01 1.307060803e-02 -1.135771422e-01 0.000000000e+00 0.000000000e+00
6.958276e+10 0.000000000e+00 0.000000000e+00 1.304588693e-02 -1.134711054e-01 1.304588693e-02 -1.134711054e-01 0.000000000e+00 0.000000000e+00
6.964947e+10 0.000000000e+00 0.000000000e+00 1.302123559e-02 -1.133652637e-01 1.302123559e-02 -1.133652637e-01 0.000000000e+00 0.000000000e+00
6.971617e+10 0.000000000e+00 0.000000000e+00 1.299665375e-02 -1.132596166e-01 1.299665375e-02 -1.132596166e-01 0.000000000e+00 0.000000000e+00
6.978288e+10 0.000000000e+00 0.000000000e+00 1.297214115e-02 -1.131541634e-01 1.297214115e-02 -1.131541634e-01 0.000000000e+00 0.000000000e+00
6.984958e+10 0.000000000e+00 0.000000000e+00 1.294769753e-02 -1.130489038e-01 1.294769753e-02 -1.130489038e-01 0.000000000e+00 0.000000000e+00
6.991628e+10 0.000000000e+00 0.000000000e+00 1.292332263e-02 -1.129438372e-01 1.292332263e-02 -1.129438372e-01 0.000000000e+00 0.000000000e+00
6.998299e+10 0.000000000e+00 0.000000000e+00 1.289901620e-02 -1.128389630e-01 1.289901620e-02 -1.128389630e-01 0.000000000e+00 0.000000000e+00
7.004969e+10 0.000000000e+00 0.000000000e+00 1.287477798e-02 -1.127342808e-01 1.287477798e-02 -1.127342808e-01 0.000000000e+00 0.000000000e+00
7.011640e+10 0.000000000e+00 0.000000000e+00 1.285060772e-02 -1.126297900e-01 1.285060772e-02 -1.126297900e-01 0.000000000e+00 0.000000000e+00
7.018310e+10 0.000000000e+00 0.000000000e+00 1.282650516e-02 -1.125254901e-01 1.282650516e-02 -1.125254901e-01 0.000000000e+00 0.000000000e+00
7.024981e+10 0.000000000e+00 0.000000000e+00 1.280247006e-02 -1.124213806e-01 1.280247006e-02 -1.124213806e-01 0.000000000e+00 0.000000000e+00
7.031651e+10 0.000000000e+00 0.000000000e+00 1.277850216e-02 -1.123174610e-01 1.277850216e-02 -1.123174610e-01 0.000000000e+00 0.000000000e+00
7.038322e+10 0.000000000e+00 0.000000000e+00 1.275460122e-02 -1.122137307e-01 1.275460122e-02 -1.122137307e-01 0.000000000e+00 0.000000000e+00
7.044992e+10 0.000000000e+00 0.000000000e+00 1.273076698e-02 -1.121101893e-01 1.273076698e-02 -1.121101893e-01 0.000000000e+00 0.000000000e+00
7.051662e+10 0.000000000e+00 0.000000000e+00 1.270699920e-02 -1.120068363e-01 1.270699920e-02 -1.120068363e-01 0.000000000e+00 0.000000000e+00
7.058333e+10 0.000000000e+00 0.000000000e+00 1.268329764e-02 -1.119036711e-01 1.268329764e-02 -1.119036711e-01 0.000000000e+00 0.000000000e+00
7.065003e+10 0.000000000e+00 0.000000000e+00 1.265966204e-02 -1.118006932e-01 1.265966204e-02 -1.118006932e-01 0.000000000e+00 0.000000000e+00
7.071674e+10 0.000000000e+00 0.000000000e+00 1.263609217e-02 -1.116979022e-01 1.263609217e-02 -1.116979022e-01 0.000000000e+00 0.000000000e+00
7.078344e+10 0.000000000e+00 0.000000000e+00 1.261258778e-02 -1.115952975e-01 1.261258778e-02 -1.115952975e-01 0.000000000e+00 0.000000000e+00
7.085015e+10 0.000000000e+00 0.000000000e+00 1.258914864e-02 -1.114928786e-01 1.258914864e-02 -1.114928786e-01 0.000000000e+00 0.000000000e+00
7.091685e+10 0.000000000e+00 0.000000000e+00 1.256577449e-02 -1.113906451e-01 1.256577449e-02 -1.113906451e-01 0.000000000e+00 0.000000000e+00
7.098356e+10 0.000000000e+00 0.000000000e+00 1.254246511e-02 -1.112885964e-01 1.254246511e-02 -1.112885964e-01 0.000000000e+00 0.000000000e+00
7.105026e+10 0.000000000e+00 0.000000000e+00 1.251922025e-02 -1.111867320e-01 1.251922025e-02 -1.111867320e-01 0.000000000e+00 0.000000000e+00
7.111696e+10 0.000000000e+00 0.000000000e+00 1.249603968e-02 -1.110850515e-01 1.249603968e-02 -1.110850515e-01 0.000000000e+00 0.000000000e+00
7.118367e+10 0.000000000e+00 0.000000000e+00 1.247292316e-02 -1.109835544e-01 1.247292316e-02 -1.109835544e-01 0.000000000e+00 0.000000000e+00
7.125037e+10 0.000000000e+00 0.000000000e+00 1.244987046e-02 -1.108822402e-01 1.244987046e-02 -1.108822402e-01 0.000000000e+00 0.000000000e+00
7.131708e+10 0.000000000e+00 0.000000000e+00 1.242688134e-02 -1.107811083e-01 1.242688134e-02 -1.107811083e-01 0.000000000e+00 0.000000000e+00
7.138378e+10 0.000000000e+00 0.000000000e+00 1.240395557e-02 -1.106801584e-01 1.240395557e-02 -1.106801584e-01 0.000000000e+00 0.000000000e+00
7.145049e+10 0.000000000e+00 0.000000000e+00 1.238109292e-02 -1.105793899e-01 1.238109292e-02 -1.105793899e-01 0.000000000e+00 0.000000000e+00
7.151719e+10 0.000000000e+00 0.000000000e+00 1.235829316e-02 -1.104788023e-01 1.235829316e-02 -1.104788023e-01 0.000000000e+00 0.000000000e+00
7.158390e+10 0.000000000e+00 0.000000000e+00 1.233555606e-02 -1.103783952e-01 1.233555606e-02 -1.103783952e-01 0.000000000e+00 0.000000000e+00
7.165060e+10 0.000000000e+00 0.000000000e+00 1.231288139e-02 -1.102781680e-01 1.231288139e-02 -1.102781680e-01 0.000000000e+00 0.000000000e+00
7.171730e+10 0.000000000e+00 0.000000000e+00 1.229026892e-02 -1.101781204e-01 1.229026892e-02 -1.101781204e-01 0.000000000e+00 0.000000000e+00
7.178401e+10 0.000000000e+00 0.000000000e+00 1.226771843e-02 -1.100782518e-01 1.226771843e-02 -1.100782518e-01 0.000000000e+00 0.000000000e+00
7.185071e+10 0.000000000e+00 0.000000000e+00 1.224522969e-02 -1.099785617e-01 1.224522969e-02 -1.099785617e-01 0.000000000e+00 0.000000000e+00
7.191742e+10 0.000000000e+00 0.000000000e+00 1.222280247e-02 -1.098790497e-01 1.222280247e-02 -1.098790497e-01 0.000000000e+00 0.000000000e+00
7.198412e+10 0.000000000e+00 0.000000000e+00 1.220043656e-02 -1.097797154e-01 1.220043656e-02 -1.097797154e-01 0.000000000e+00 0.000000000e+00
7.205083e+10 0.000000000e+00 0.000000000e+00 1.217813173e-02 -1.096805582e-01 1.217813173e-02 -1.096805582e-01 0.000000000e+00 0.000000000e+00
7.211753e+10 0.000000000e+00 0.000000000e+00 1.215588777e-02 -1.095815776e-01 1.215588777e-02 -1.095815776e-01 0.000000000e+00 0.000000000e+00
7.218424e+10 0.000000000e+00 0.000000000e+00 1.213370444e-02 -1.094827733e-01 1.213370444e-02 -1.094827733e-01 0.000000000e+00 0.000000000e+00
7.225094e+10 0.000000000e+00 0.000000000e+00 1.211158153e-02 -1.093841447e-01 1.211158153e-02 -1.093841447e-01 0.000000000e+00 0.000000000e+00
7.231765e+10 0.000000000e+00 0.000000000e+00 1.208951882e-02 -1.092856915e-01 1.208951882e-02 -1.092856915e-01 0.000000000e+00 0.000000000e+00
7.238435e+10 0.000000000e+00 0.000000000e+00 1.206751610e-02 -1.091874130e-01 1.206751610e-02 -1.091874130e-01 0.000000000e+00 0.000000000e+00
7.245105e+10 0.000000000e+00 0.000000000e+00 1.204557315e-02 -1.090893089e-01 1.204557315e-02 -1.090893089e-01 0.000000000e+00 0.000000000e+00
7.251776e+10 0.000000000e+00 0.000000000e+00 1.202368975e-02 -1.089913787e-01 1.202368975e-02 -1.089913787e-01 0.000000000e+00 0.000000000e+00
7.258446e+10 0.000000000e+00 0.000000000e+00 1.200186569e-02 -1.088936220e-01 1.200186569e-02 -1.088936220e-01 0.000000000e+00 0.000000000e+00
7.265117e+10 0.000000000e+00 0.000000000e+00 1.198010076e-02 -1.087960383e-01 1.198010076e-02 -1.087960383e-01 0.000000000e+00 0.000000000e+00
7.271787e+10 0.000000000e+00 0.000000000e+00 1.195839474e-02 -1.086986271e-01 1.195839474e-02 -1.086986271e-01 0.000000000e+00 0.000000000e+00
7.278458e+10 0.000000000e+00 0.000000000e+00 1.193674742e-02 -1.086013880e-01 1.193674742e-02 -1.086013880e-01 0.000000000e+00 0.000000000e+00
7.285128e+10 0.000000000e+00 0.000000000e+00 1.191515859e-02 -1.085043206e-01 1.191515859e-02 -1.085043206e-01 0.000000000e+00 0.000000000e+00
7.291799e+10 0.000000000e+00 0.000000000e+00 1.189362804e-02 -1.084074243e-01 1.189362804e-02 -1.084074243e-01 0.000000000e+00 0.000000000e+00
7.298469e+10 0.000000000e+00 0.000000000e+00 1.187215556e-02 -1.083106988e-01 1.187215556e-02 -1.083106988e-01 0.000000000e+00 0.000000000e+00
7.305139e+10 0.000000000e+00 0.000000000e+00 1.185074095e-02 -1.082141436e-01 1.185074095e-02 -1.082141436e-01 0.000000000e+00 0.000000000e+00
7.311810e+10 0.000000000e+00 0.000000000e+00 1.182938399e-02 -1.081177583e-01 1.182938399e-02 -1.081177583e-01 0.000000000e+00 0.000000000e+00
7.318480e+10 0.000000000e+00 0.000000000e+00 1.180808449e-02 -1.080215424e-01 1.180808449e-02 -1.080215424e-01 0.000000000e+00 0.000000000e+00
7.325151e+10 0.000000000e+00 0.000000000e+00 1.178684223e-02 -1.079254955e-01 1.178684223e-02 -1.079254955e-01 0.000000000e+00 0.000000000e+00
7.331821e+10 0.000000000e+00 0.000000000e+00 1.176565702e-02 -1.078296171e-01 1.176565702e-02 -1.078296171e-01 0.000000000e+00 0.000000000e+00
7.338492e+10 0.000000000e+00 0.000000000e+00 1.174452864e-02 -1.077339069e-01 1.174452864e-02 -1.077339069e-01 0.000000000e+00 0.000000000e+00
7.345162e+10 0.000000000e+00 0.000000000e+00 1.172345690e-02 -1.076383643e-01 1.172345690e-02 -1.076383643e-01 0.000000000e+00 0.000000000e+00
7.351833e+10 0.000000000e+00 0.000000000e+00 1.170244160e-02 -1.075429889e-01 1.170244160e-02 -1.075429889e-01 0.000000000e+00 0.000000000e+00
7.358503e+10 0.000000000e+00 0.000000000e+00 1.168148253e-02 -1.074477803e-01 1.168148253e-02 -1.074477803e-01 0.000000000e+00 0.000000000e+00
7.365173e+10 0.000000000e+00 0.000000000e+00 1.166057949e-02 -1.073527381e-01 1.166057949e-02 -1.073527381e-01 0.000000000e+00 0.000000000e+00
7.371844e+10 0.000000000e+00 0.000000000e+00 1.163973230e-02 -1.072578618e-01 1.163973230e-02 -1.072578618e-01 0.000000000e+00 0.000000000e+00
7.378514e+10 0.000000000e+00 0.000000000e+00 1.161894074e-02 -1.071631511e-01 1.161894074e-02 -1.071631511e-01 0.000000000e+00 0.000000000e+00
7.385185e+10 0.000000000e+00 0.000000000e+00 1.159820462e-02 -1.070686054e-01 1.159820462e-02 -1.070686054e-01 0.000000000e+00 0.000000000e+00
7.391855e+10 0.000000000e+00 0.000000000e+00 1.157752375e-02 -1.069742244e-01 1.157752375e-02 -1.069742244e-01 0.000000000e+00 0.000000000e+00
7.398526e+10 0.000000000e+00 0.000000000e+00 1.155689792e-02 -1.068800076e-01 1.155689792e-02 -1.068800076e-01 0.000000000e+00 0.000000000e+00
7.405196e+10 0.000000000e+00 0.000000000e+00 1.153632696e-02 -1.067859547e-01 1.153632696e-02 -1.067859547e-01 0.000000000e+00 0.000000000e+00
7.411867e+10 0.000000000e+00 0.000000000e+00 1.151581065e-02 -1.066920651e-01 1.151581065e-02 -1.066920651e-01 0.000000000e+00 0.000000000e+00
7.418537e+10 0.000000000e+00 0.000000000e+00 1.149534882e-02 -1.065983385e-01 1.149534882e-02 -1.065983385e-01 0.000000000e+00 0.000000000e+00
7.425207e+10 0.000000000e+00 0.000000000e+00 1.147494126e-02 -1.065047744e-01 1.147494126e-02 -1.065047744e-01 0.000000000e+00 0.000000000e+00
7.431878e+10 0.000000000e+00 0.000000000e+00 1.145458778e-02 -1.064113725e-01 1.145458778e-02 -1.064113725e-01 0.000000000e+00 0.000000000e+00
7.438548e+10 0.000000000e+00 0.000000000e+00 1.143428821e-02 -1.063181323e-01 1.143428821e-02 -1.063181323e-01 0.000000000e+00 0.000000000e+00
7.445219e+10 0.000000000e+00 0.000000000e+00 1.141404234e-02 -1.062250534e-01 1.141404234e-02 -1.062250534e-01 0.000000000e+00 0.000000000e+00
7.451889e+10 0.000000000e+00 0.000000000e+00 1.139384999e-02 -1.061321354e-01 1.139384999e-02 -1.061321354e-01 0.000000000e+00 0.000000000e+00
7.458560e+10 0.000000000e+00 0.000000000e+00 1.137371096e-02 -1.060393779e-01 1.137371096e-02 -1.060393779e-01 0.000000000e+00 0.000000000e+00
7.465230e+10 0.000000000e+00 0.000000000e+00 1.135362509e-02 -1.059467804e-01 1.135362509e-02 -1.059467804e-01 0.000000000e+00 0.000000000e+00
7.471901e+10 0.000000000e+00 0.000000000e+00 1.133359217e-02 -1.058543426e-01 1.133359217e-02 -1.058543426e-01 0.000000000e+00 0.000000000e+00
7.478571e+10 0.000000000e+00 0.000000000e+00 1.131361202e-02 -1.057620641e-01 1.131361202e-02 -1.057620641e-01 0.000000000e+00 0.000000000e+00
7.485241e+10 0.000000000e+00 0.000000000e+00 1.129368446e-02 -1.056699444e-01 1.129368446e-02 -1.056699444e-01 0.000000000e+00 0.000000000e+00
7.491912e+10 0.000000000e+00 0.000000000e+00 1.127380930e-02 -1.055779831e-01 1.127380930e-02 -1.055779831e-01 0.000000000e+00 0.000000000e+00
7.498582e+10 0.000000000e+00 0.000000000e+00 1.125398636e-02 -1.054861799e-01 1.125398636e-02 -1.054861799e-01 0.000000000e+00 0.000000000e+00
7.505253e+10 0.000000000e+00 0.000000000e+00 1.123421546e-02 -1.053945343e-01 1.123421546e-02 -1.053945343e-01 0.000000000e+00 0.000000000e+00
7.511923e+10 0.000000000e+00 0.000000000e+00 1.121449642e-02 -1.053030460e-01 1.121449642e-02 -1.053030460e-01 0.000000000e+00 0.000000000e+00
7.518594e+10 0.000000000e+00 0.000000000e+00 1.119482906e-02 -1.052117145e-01 1.119482906e-02 -1.052117145e-01 0.000000000e+00 0.000000000e+00
7.525264e+10 0.000000000e+00 0.000000000e+00 1.117521320e-02 -1.051205394e-01 1.117521320e-02 -1.051205394e-01 0.000000000e+00 0.000000000e+00
7.531935e+10 0.000000000e+00 0.000000000e+00 1.115564865e-02 -1.050295204e-01 1.115564865e-02 -1.050295204e-01 0.000000000e+00 0.000000000e+00
7.538605e+10 0.000000000e+00 0.000000000e+00 1.113613524e-02 -1.049386570e-01 1.113613524e-02 -1.049386570e-01 0.000000000e+00 0.000000000e+00
7.545276e+10 0.000000000e+00 0.000000000e+00 1.111667280e-02 -1.048479489e-01 1.111667280e-02 -1.048479489e-01 0.000000000e+00 0.000000000e+00
7.551946e+10 0.000000000e+00 0.000000000e+00 1.109726114e-02 -1.047573956e-01 1.109726114e-02 -1.047573956e-01 0.000000000e+00 0.000000000e+00
7.558616e+10 0.000000000e+00 0.000000000e+00 1.107790010e-02 -1.046669968e-01 1.107790010e-02 -1.046669968e-01 0.000000000e+00 0.000000000e+00
7.565287e+10 0.000000000e+00 0.000000000e+00 1.105858948e-02 -1.045767521e-01 1.105858948e-02 -1.045767521e-01 0.000000000e+00 0.000000000e+00
7.571957e+10 0.000000000e+00 0.000000000e+00 1.103932913e-02 -1.044866611e-01 1.103932913e-02 -1.044866611e-01 0.000000000e+00 0.000000000e+00
7.578628e+10 0.000000000e+00 0.000000000e+00 1.102011887e-02 -1.043967234e-01 1.102011887e-02 -1.043967234e-01 0.000000000e+00 0.000000000e+00
7.585298e+10 0.000000000e+00 0.000000000e+00 1.100095852e-02 -1.043069386e-01 1.100095852e-02 -1.043069386e-01 0.000000000e+00 0.000000000e+00
7.591969e+10 0.000000000e+00 0.000000000e+00 1.098184791e-02 -1.042173063e-01 1.098184791e-02 -1.042173063e-01 0.000000000e+00 0.000000000e+00
7.598639e+10 0.000000000e+00 0.000000000e+00 1.096278688e-02 -1.041278262e-01 1.096278688e-02 -1.041278262e-01 0.000000000e+00 0.000000000e+00
7.605310e+10 0.000000000e+00 0.000000000e+00 1.094377524e-02 -1.040384978e-01 1.094377524e-02 -1.040384978e-01 0.000000000e+00 0.000000000e+00
7.611980e+10 0.000000000e+00 0.000000000e+00 1.092481284e-02 -1.039493208e-01 1.092481284e-02 -1.039493208e-01 0.000000000e+00 0.000000000e+00
7.618650e+10 0.000000000e+00 0.000000000e+00 1.090589949e-02 -1.038602949e-01 1.090589949e-02 -1.038602949e-01 0.000000000e+00 0.000000000e+00
7.625321e+10 0.000000000e+00 0.000000000e+00 1.088703504e-02 -1.037714195e-01 1.088703504e-02 -1.037714195e-01 0.000000000e+00 0.000000000e+00
7.631991e+10 0.000000000e+00 0.000000000e+00 1.086821931e-02 -1.036826944e-01 1.086821931e-02 -1.036826944e-01 0.000000000e+00 0.000000000e+00
7.638662e+10 0.000000000e+00 0.000000000e+00 1.084945214e-02 -1.035941192e-01 1.084945214e-02 -1.035941192e-01 0.000000000e+00 0.000000000e+00
7.645332e+10 0.000000000e+00 0.000000000e+00 1.083073336e-02 -1.035056935e-01 1.083073336e-02 -1.035056935e-01 0.000000000e+00 0.000000000e+00
7.652003e+10 0.000000000e+00 0.000000000e+00 1.081206281e-02 -1.034174169e-01 1.081206281e-02 -1.034174169e-01 0.000000000e+00 0.000000000e+00
7.658673e+10 0.000000000e+00 0.000000000e+00 1.079344032e-02 -1.033292890e-01 1.079344032e-02 -1.033292890e-01 0.000000000e+00 0.000000000e+00
7.665344e+10 0.000000000e+00 0.000000000e+00 1.077486573e-02 -1.032413095e-01 1.077486573e-02 -1.032413095e-01 0.000000000e+00 0.000000000e+00
7.672014e+10 0.000000000e+00 0.000000000e+00 1.075633886e-02 -1.031534781e-01 1.075633886e-02 -1.031534781e-01 0.000000000e+00 0.000000000e+00
7.678684e+10 0.000000000e+00 0.000000000e+00 1.073785957e-02 -1.030657943e-01 1.073785957e-02 -1.030657943e-01 0.000000000e+00 0.000000000e+00
7.685355e+10 0.000000000e+00 0.000000000e+00 1.071942769e-02 -1.029782577e-01 1.071942769e-02 -1.029782577e-01 0.000000000e+00 0.000000000e+00
7.692025e+10 0.000000000e+00 0.000000000e+00 1.070104306e-02 -1.028908681e-01 1.070104306e-02 -1.028908681e-01 0.000000000e+00 0.000000000e+00
7.698696e+10 0.000000000e+00 0.000000000e+00 1.068270551e-02 -1.028036250e-01 1.068270551e-02 -1.028036250e-01 0.000000000e+00 0.000000000e+00
7.705366e+10 0.000000000e+00 0.000000000e+00 1.066441488e-02 -1.027165281e-01 1.066441488e-02 -1.027165281e-01 0.000000000e+00 0.000000000e+00
7.712037e+10 0.000000000e+00 0.000000000e+00 1.064617103e-02 -1.026295770e-01 1.064617103e-02 -1.026295770e-01 0.000000000e+00 0.000000000e+00
7.718707e+10 0.000000000e+00 0.000000000e+00 1.062797378e-02 -1.025427713e-01 1.062797378e-02 -1.025427713e-01 0.000000000e+00 0.000000000e+00
7.725378e+10 0.000000000e+00 0.000000000e+00 1.060982298e-02 -1.024561108e-01 1.060982298e-02 -1.024561108e-01 0.000000000e+00 0.000000000e+00
7.732048e+10 0.000000000e+00 0.000000000e+00 1.059171847e-02 -1.023695950e-01 1.059171847e-02 -1.023695950e-01 0.000000000e+00 0.000000000e+00
7.738718e+10 0.000000000e+00 0.000000000e+00 1.057366010e-02 -1.022832235e-01 1.057366010e-02 -1.022832235e-01 0.000000000e+00 0.000000000e+00
7.745389e+10 0.000000000e+00 0.000000000e+00 1.055564771e-02 -1.021969961e-01 1.055564771e-02 -1.021969961e-01 0.000000000e+00 0.000000000e+00
7.752059e+10 0.000000000e+00 0.000000000e+00 1.053768114e-02 -1.021109123e-01 1.053768114e-02 -1.021109123e-01 0.000000000e+00 0.000000000e+00
7.758730e+10 0.000000000e+00 0.000000000e+00 1.051976025e-02 -1.020249719e-01 1.051976025e-02 -1.020249719e-01 0.000000000e+00 0.000000000e+00
7.765400e+10 0.000000000e+00 0.000000000e+00 1.050188486e-02 -1.019391744e-01 1.050188486e-02 -1.019391744e-01 0.000000000e+00 0.000000000e+00
7.772071e+10 0.000000000e+00 0.000000000e+00 1.048405484e-02 -1.018535195e-01 1.048405484e-02 -1.018535195e-01 0.000000000e+00 0.000000000e+00
7.778741e+10 0.000000000e+00 0.000000000e+00 1.046627003e-02 -1.017680069e-01 1.046627003e-02 -1.017680069e-01 0.000000000e+00 0.000000000e+00
7.785412e+10 0.000000000e+00 0.000000000e+00 1.044853028e-02 -1.016826361e-01 1.044853028e-02 -1.016826361e-01 0.000000000e+00 0.000000000e+00
7.792082e+10 0.000000000e+00 0.000000000e+00 1.043083543e-02 -1.015974070e-01 1.043083543e-02 -1.015974070e-01 0.000000000e+00 0.000000000e+00
7.798753e+10 0.000000000e+00 0.000000000e+00 1.041318534e-02 -1.015123190e-01 1.041318534e-02 -1.015123190e-01 0.000000000e+00 0.000000000e+00
7.805423e+10 0.000000000e+00 0.000000000e+00 1.039557985e-02 -1.014273719e-01 1.039557985e-02 -1.014273719e-01 0.000000000e+00 0.000000000e+00
7.812093e+10 0.000000000e+00 0.000000000e+00 1.037801881e-02 -1.013425653e-01 1.037801881e-02 -1.013425653e-01 0.000000000e+00 0.000000000e+00
7.818764e+10 0.000000000e+00 0.000000000e+00 1.036050208e-02 -1.012578989e-01 1.036050208e-02 -1.012578989e-01 0.000000000e+00 0.000000000e+00
7.825434e+10 0.000000000e+00 0.000000000e+00 1.034302951e-02 -1.011733722e-01 1.034302951e-02 -1.011733722e-01 0.000000000e+00 0.000000000e+00
7.832105e+10 0.000000000e+00 0.000000000e+00 1.032560095e-02 -1.010889851e-01 1.032560095e-02 -1.010889851e-01 0.000000000e+00 0.000000000e+00
7.838775e+10 0.000000000e+00 0.000000000e+00 1.030821625e-02 -1.010047372e-01 1.030821625e-02 -1.010047372e-01 0.000000000e+00 0.000000000e+00
7.845446e+10 0.000000000e+00 0.000000000e+00 1.029087527e-02 -1.009206280e-01 1.029087527e-02 -1.009206280e-01 0.000000000e+00 0.000000000e+00
7.852116e+10 0.000000000e+00 0.000000000e+00 1.027357785e-02 -1.008366573e-01 1.027357785e-02 -1.008366573e-01 0.000000000e+00 0.000000000e+00
7.858787e+10 0.000000000e+00 0.000000000e+00 1.025632386e-02 -1.007528247e-01 1.025632386e-02 -1.007528247e-01 0.000000000e+00 0.000000000e+00
7.865457e+10 0.000000000e+00 0.000000000e+00 1.023911315e-02 -1.006691299e-01 1.023911315e-02 -1.006691299e-01 0.000000000e+00 0.000000000e+00
7.872127e+10 0.000000000e+00 0.000000000e+00 1.022194558e-02 -1.005855725e-01 1.022194558e-02 -1.005855725e-01 0.000000000e+00 0.000000000e+00
7.878798e+10 0.000000000e+00 0.000000000e+00 1.020482099e-02 -1.005021523e-01 1.020482099e-02 -1.005021523e-01 0.000000000e+00 0.000000000e+00
7.885468e+10 0.000000000e+00 0.000000000e+00 1.018773926e-02 -1.004188689e-01 1.018773926e-02 -1.004188689e-01 0.000000000e+00 0.000000000e+00
7.892139e+10 0.000000000e+00 0.000000000e+00 1.017070023e-02 -1.003357219e-01 1.017070023e-02 -1.003357219e-01 0.000000000e+00 0.000000000e+00
7.898809e+10 0.000000000e+00 0.000000000e+00 1.015370377e-02 -1.002527110e-01 1.015370377e-02 -1.002527110e-01 0.000000000e+00 0.000000000e+00
7.905480e+10 0.000000000e+00 0.000000000e+00 1.013674974e-02 -1.001698360e-01 1.013674974e-02 -1.001698360e-01 0.000000000e+00 0.000000000e+00
7.912150e+10 0.000000000e+00 0.000000000e+00 1.011983798e-02 -1.000870964e-01 1.011983798e-02 -1.000870964e-01 0.000000000e+00 0.000000000e+00
7.918821e+10 0.000000000e+00 0.000000000e+00 1.010296837e-02 -1.000044919e-01 1.010296837e-02 -1.000044919e-01 0.000000000e+00 0.000000000e+00
7.925491e+10 0.000000000e+00 0.000000000e+00 1.008614076e-02 -9.992202224e-02 1.008614076e-02 -9.992202224e-02 0.000000000e+00 0.000000000e+00
7.932161e+10 0.000000000e+00 0.000000000e+00 1.006935502e-02 -9.983968706e-02 1.006935502e-02 -9.983968706e-02 0.000000000e+00 0.000000000e+00
7.938832e+10 0.000000000e+00 0.000000000e+00 1.005261101e-02 -9.975748603e-02 1.005261101e-02 -9.975748603e-02 0.000000000e+00 0.000000000e+00
7.945502e+10 0.000000000e+00 0.000000000e+00 1.003590858e-02 -9.967541884e-02 1.003590858e-02 -9.967541884e-02 0.000000000e+00 0.000000000e+00
7.952173e+10 0.000000000e+00 0.000000000e+00 1.001924761e-02 -9.959348516e-02 1.001924761e-02 -9.959348516e-02 0.000000000e+00 0.000000000e+00
7.958843e+10 0.000000000e+00 0.000000000e+00 1.000262795e-02 -9.951168466e-02 1.000262795e-02 -9.951168466e-02 0.000000000e+00 0.000000000e+00
7.965514e+10 0.000000000e+00 0.000000000e+00 9.986049470e-03 -9.943001703e-02 9.986049470e-03 -9.943001703e-02 0.000000000e+00 0.000000000e+00
7.972184e+10 0.000000000e+00 0.000000000e+00 9.969512035e-03 -9.934848194e-02 9.969512035e-03 -9.934848194e-02 0.000000000e+00 0.000000000e+00
7.978855e+10 0.000000000e+00 0.000000000e+00 9.953015508e-03 -9.926707909e-02 9.953015508e-03 -9.926707909e-02 0.000000000e+00 0.000000000e+00
7.985525e+10 0.000000000e+00 0.000000000e+00 9.936559756e-03 -9.918580814e-02 9.936559756e-03 -9.918580814e-02 0.000000000e+00 0.000000000e+00
7.992195e+10 0.000000000e+00 0.000000000e+00 9.920144645e-03 -9.910466878e-02 9.920144645e-03 -9.910466878e-02 0.000000000e+00 0.000000000e+00
7.998866e+10 0.000000000e+00 0.000000000e+00 9.903770041e-03 -9.902366071e-02 9.903770041e-03 -9.902366071e-02 0.000000000e+00 0.000000000e+00
8.005536e+10 0.000000000e+00 0.000000000e+00 9.887435812e-03 -9.894278359e-02 9.887435812e-03 -9.894278359e-02 0.000000000e+00 0.000000000e+00
8.012207e+10 0.000000000e+00 0.000000000e+00 9.871141825e-03 -9.886203712e-02 9.871141825e-03 -9.886203712e-02 0.000000000e+00 0.000000000e+00
8.018877e+10 0.000000000e+00 0.000000000e+00 9.854887949e-03 -9.878142099e-02 9.854887949e-03 -9.878142099e-02 0.000000000e+00 0.000000000e+00
8.025548e+10 0.000000000e+00 0.000000000e+00 9.838674053e-03 -9.870093488e-02 9.838674053e-03 -9.870093488e-02 0.000000000e+00 0.000000000e+00
8.032218e+10 0.000000000e+00 0.000000000e+00 9.822500006e-03 -9.862057848e-02 9.822500006e-03 -9.862057848e-02 0.000000000e+00 0.000000000e+00
8.038889e+10 0.000000000e+00 0.000000000e+00 9.806365679e-03 -9.854035149e-02 9.806365679e-03 -9.854035149e-02 0.000000000e+00 0.000000000e+00
8.045559e+10 0.000000000e+00 0.000000000e+00 9.790270941e-03 -9.846025358e-02 9.790270941e-03 -9.846025358e-02 0.000000000e+00 0.000000000e+00
8.052229e+10 0.000000000e+00 0.000000000e+00 9.774215664e-03 -9.838028447e-02 9.774215664e-03 -9.838028447e-02 0.000000000e+00 0.000000000e+00
8.058900e+10 0.000000000e+00 0.000000000e+00 9.758199719e-03 -9.830044383e-02 9.758199719e-03 -9.830044383e-02 0.000000000e+00 0.000000000e+00
8.065570e+10 0.000000000e+00 0.000000000e+00 9.742222978e-03 -9.822073136e-02 9.742222978e-03 -9.822073136e-02 0.000000000e+00 0.000000000e+00
8.072241e+10 0.000000000e+00 0.000000000e+00 9.726285314e-03 -9.814114677e-02 9.726285314e-03 -9.814114677e-02 0.000000000e+00 0.000000000e+00
8.078911e+10 0.000000000e+00 0.000000000e+00 9.710386601e-03 -9.806168973e-02 9.710386601e-03 -9.806168973e-02 0.000000000e+00 0.000000000e+00
8.085582e+10 0.000000000e+00 0.000000000e+00 9.694526710e-03 -9.798235995e-02 9.694526710e-03 -9.798235995e-02 0.000000000e+00 0.000000000e+00
8.092252e+10 0.000000000e+00 0.000000000e+00 9.678705517e-03 -9.790315713e-02 9.678705517e-03 -9.790315713e-02 0.000000000e+00 0.000000000e+00
8.098923e+10 0.000000000e+00 0.000000000e+00 9.662922897e-03 -9.782408097e-02 9.662922897e-03 -9.782408097e-02 0.000000000e+00 0.000000000e+00
8.105593e+10 0.000000000e+00 0.000000000e+00 9.647178724e-03 -9.774513117e-02 9.647178724e-03 -9.774513117e-02 0.000000000e+00 0.000000000e+00
8.112264e+10 0.000000000e+00 0.000000000e+00 9.631472874e-03 -9.766630741e-02 9.631472874e-03 -9.766630741e-02 0.000000000e+00 0.000000000e+00
8.118934e+10 0.000000000e+00 0.000000000e+00 9.615805223e-03 -9.758760942e-02 9.615805223e-03 -9.758760942e-02 0.000000000e+00 0.000000000e+00
8.125604e+10 0.000000000e+00 0.000000000e+00 9.600175648e-03 -9.750903689e-02 9.600175648e-03 -9.750903689e-02 0.000000000e+00 0.000000000e+00
8.132275e+10 0.000000000e+00 0.000000000e+00 9.584584026e-03 -9.743058952e-02 9.584584026e-03 -9.743058952e-02 0.000000000e+00 0.000000000e+00
8.138945e+10 0.000000000e+00 0.000000000e+00 9.569030234e-03 -9.735226702e-02 9.569030234e-03 -9.735226702e-02 0.000000000e+00 0.000000000e+00
8.145616e+10 0.000000000e+00 0.000000000e+00 9.553514151e-03 -9.727406909e-02 9.553514151e-03 -9.727406909e-02 0.000000000e+00 0.000000000e+00
8.152286e+10 0.000000000e+00 0.000000000e+00 9.538035655e-03 -9.719599545e-02 9.538035655e-03 -9.719599545e-02 0.000000000e+00 0.000000000e+00
8.158957e+10 0.000000000e+00 0.000000000e+00 9.522594625e-03 -9.711804578e-02 9.522594625e-03 -9.711804578e-02 0.000000000e+00 0.000000000e+00
8.165627e+10 0.000000000e+00 0.000000000e+00 9.507190942e-03 -9.704021982e-02 9.507190942e-03 -9.704021982e-02 0.000000000e+00 0.000000000e+00
8.172298e+10 0.000000000e+00 0.000000000e+00 9.491824484e-03 -9.696251725e-02 9.491824484e-03 -9.696251725e-02 0.000000000e+00 0.000000000e+00
8.178968e+10 0.000000000e+00 0.000000000e+00 9.476495133e-03 -9.688493780e-02 9.476495133e-03 -9.688493780e-02 0.000000000e+00 0.000000000e+00
8.185638e+10 0.000000000e+00 0.000000000e+00 9.461202769e-03 -9.680748117e-02 9.461202769e-03 -9.680748117e-02 0.000000000e+00 0.000000000e+00
8.192309e+10 0.000000000e+00 0.000000000e+00 9.445947274e-03 -9.673014708e-02 9.445947274e-03 -9.673014708e-02 0.000000000e+00 0.000000000e+00
8.198979e+10 0.000000000e+00 0.000000000e+00 9.430728530e-03 -9.665293524e-02 9.430728530e-03 -9.665293524e-02 0.000000000e+00 0.000000000e+00
8.205650e+10 0.000000000e+00 0.000000000e+00 9.415546420e-03 -9.657584535e-02 9.415546420e-03 -9.657584535e-02 0.000000000e+00 0.000000000e+00
8.212320e+10 0.000000000e+00 0.000000000e+00 9.400400826e-03 -9.649887714e-02 9.400400826e-03 -9.649887714e-02 0.000000000e+00 0.000000000e+00
8.218991e+10 0.000000000e+00 0.000000000e+00 9.385291631e-03 -9.642203032e-02 9.385291631e-03 -9.642203032e-02 0.000000000e+00 0.000000000e+00
8.225661e+10 0.000000000e+00 0.000000000e+00 9.370218720e-03 -9.634530461e-02 9.370218720e-03 -9.634530461e-02 0.000000000e+00 0.000000000e+00
8.232332e+10 0.000000000e+00 0.000000000e+00 9.355181976e-03 -9.626869972e-02 9.355181976e-03 -9.626869972e-02 0.000000000e+00 0.000000000e+00
8.239002e+10 0.000000000e+00 0.000000000e+00 9.340181285e-03 -9.619221537e-02 9.340181285e-03 -9.619221537e-02 0.000000000e+00 0.000000000e+00
8.245672e+10 0.000000000e+00 0.000000000e+00 9.325216531e-03 -9.611585128e-02 9.325216531e-03 -9.611585128e-02 0.000000000e+00 0.000000000e+00
8.252343e+10 0.000000000e+00 0.000000000e+00 9.310287601e-03 -9.603960717e-02 9.310287601e-03 -9.603960717e-02 0.000000000e+00 0.000000000e+00
8.259013e+10 0.000000000e+00 0.000000000e+00 9.295394380e-03 -9.596348276e-02 9.295394380e-03 -9.596348276e-02 0.000000000e+00 0.000000000e+00
8.265684e+10 0.000000000e+00 0.000000000e+00 9.280536756e-03 -9.588747777e-02 9.280536756e-03 -9.588747777e-02 0.000000000e+00 0.000000000e+00
8.272354e+10 0.000000000e+00 0.000000000e+00 9.265714614e-03 -9.581159192e-02 9.265714614e-03 -9.581159192e-02 0.000000000e+00 0.000000000e+00
8.279025e+10 0.000000000e+00 0.000000000e+00 9.250927843e-03 -9.573582494e-02 9.250927843e-03 -9.573582494e-02 0.000000000e+00 0.000000000e+00
8.285695e+10 0.000000000e+00 0.000000000e+00 9.236176330e-03 -9.566017654e-02 9.236176330e-03 -9.566017654e-02 0.000000000e+00 0.000000000e+00
8.292366e+10 0.000000000e+00 0.000000000e+00 9.221459963e-03 -9.558464646e-02 9.221459963e-03 -9.558464646e-02 0.000000000e+00 0.000000000e+00
8.299036e+10 0.000000000e+00 0.000000000e+00 9.206778633e-03 -9.550923442e-02 9.206778633e-03 -9.550923442e-02 0.000000000e+00 0.000000000e+00
8.305706e+10 0.000000000e+00 0.000000000e+00 9.192132227e-03 -9.543394015e-02 9.192132227e-03 -9.543394015e-02 0.000000000e+00 0.000000000e+00
8.312377e+10 0.000000000e+00 0.000000000e+00 9.177520635e-03 -9.535876336e-02 9.177520635e-03 -9.535876336e-02 0.000000000e+00 0.000000000e+00
8.319047e+10 0.000000000e+00 0.000000000e+00 9.162943748e-03 -9.528370380e-02 9.162943748e-03 -9.528370380e-02 0.000000000e+00 0.000000000e+00
8.325718e+10 0.000000000e+00 0.000000000e+00 9.148401455e-03 -9.520876118e-02 9.148401455e-03 -9.520876118e-02 0.000000000e+00 0.000000000e+00
8.332388e+10 0.000000000e+00 0.000000000e+00 9.133893649e-03 -9.513393525e-02 9.133893649e-03 -9.513393525e-02 0.000000000e+00 0.000000000e+00
8.339059e+10 0.000000000e+00 0.000000000e+00 9.119420220e-03 -9.505922572e-02 9.119420220e-03 -9.505922572e-02 0.000000000e+00 0.000000000e+00
8.345729e+10 0.000000000e+00 0.000000000e+00 9.104981060e-03 -9.498463234e-02 9.104981060e-03 -9.498463234e-02 0.000000000e+00 0.000000000e+00
8.352400e+10 0.000000000e+00 0.000000000e+00 9.090576062e-03 -9.491015482e-02 9.090576062e-03 -9.491015482e-02 0.000000000e+00 0.000000000e+00
8.359070e+10 0.000000000e+00 0.000000000e+00 9.076205117e-03 -9.483579291e-02 9.076205117e-03 -9.483579291e-02 0.000000000e+00 0.000000000e+00
8.365740e+10 0.000000000e+00 0.000000000e+00 9.061868120e-03 -9.476154635e-02 9.061868120e-03 -9.476154635e-02 0.000000000e+00 0.000000000e+00
8.372411e+10 0.000000000e+00 0.000000000e+00 9.047564963e-03 -9.468741485e-02 9.047564963e-03 -9.468741485e-02 0.000000000e+00 0.000000000e+00
8.379081e+10 0.000000000e+00 0.000000000e+00 9.033295540e-03 -9.461339816e-02 9.033295540e-03 -9.461339816e-02 0.000000000e+00 0.000000000e+00
8.385752e+10 0.000000000e+00 0.000000000e+00 9.019059747e-03 -9.453949602e-02 9.019059747e-03 -9.453949602e-02 0.000000000e+00 0.000000000e+00
8.392422e+10 0.000000000e+00 0.000000000e+00 9.004857477e-03 -9.446570816e-02 9.004857477e-03 -9.446570816e-02 0.000000000e+00 0.000000000e+00
8.399093e+10 0.000000000e+00 0.000000000e+00 8.990688625e-03 -9.439203432e-02 8.990688625e-03 -9.439203432e-02 0.000000000e+00 0.000000000e+00
8.405763e+10 0.000000000e+00 0.000000000e+00 8.976553088e-03 -9.431847424e-02 8.976553088e-03 -9.431847424e-02 0.000000000e+00 0.000000000e+00
8.412434e+10 0.000000000e+00 0.000000000e+00 8.962450761e-03 -9.424502766e-02 8.962450761e-03 -9.424502766e-02 0.000000000e+00 0.000000000e+00
8.419104e+10 0.000000000e+00 0.000000000e+00 8.948381541e-03 -9.417169431e-02 8.948381541e-03 -9.417169431e-02 0.000000000e+00 0.000000000e+00
8.425775e+10 0.000000000e+00 0.000000000e+00 8.934345324e-03 -9.409847394e-02 8.934345324e-03 -9.409847394e-02 0.000000000e+00 0.000000000e+00
8.432445e+10 0.000000000e+00 0.000000000e+00 8.920342007e-03 -9.402536629e-02 8.920342007e-03 -9.402536629e-02 0.000000000e+00 0.000000000e+00
8.439115e+10 0.000000000e+00 0.000000000e+00 8.906371489e-03 -9.395237110e-02 8.906371489e-03 -9.395237110e-02 0.000000000e+00 0.000000000e+00
8.445786e+10 0.000000000e+00 0.000000000e+00 8.892433667e-03 -9.387948812e-02 8.892433667e-03 -9.387948812e-02 0.000000000e+00 0.000000000e+00
8.452456e+10 0.000000000e+00 0.000000000e+00 8.878528439e-03 -9.380671709e-02 8.878528439e-03 -9.380671709e-02 0.000000000e+00 0.000000000e+00
8.459127e+10 0.000000000e+00 0.000000000e+00 8.864655704e-03 -9.373405775e-02 8.864655704e-03 -9.373405775e-02 0.000000000e+00 0.000000000e+00
8.465797e+10 0.000000000e+00 0.000000000e+00 8.850815361e-03 -9.366150986e-02 8.850815361e-03 -9.366150986e-02 0.000000000e+00 0.000000000e+00
8.472468e+10 0.000000000e+00 0.000000000e+00 8.837007310e-03 -9.358907314e-02 8.837007310e-03 -9.358907314e-02 0.000000000e+00 0.000000000e+00
8.479138e+10 0.000000000e+00 0.000000000e+00 8.823231451e-03 -9.351674737e-02 8.823231451e-03 -9.351674737e-02 0.000000000e+00 0.000000000e+00
8.485809e+10 0.000000000e+00 0.000000000e+00 8.809487684e-03 -9.344453227e-02 8.809487684e-03 -9.344453227e-02 0.000000000e+00 0.000000000e+00
8.492479e+10 0.000000000e+00 0.000000000e+00 8.795775910e-03 -9.337242760e-02 8.795775910e-03 -9.337242760e-02 0.000000000e+00 0.000000000e+00
8.499149e+10 0.000000000e+00 0.000000000e+00 8.782096030e-03 -9.330043311e-02 8.782096030e-03 -9.330043311e-02 0.000000000e+00 0.000000000e+00
8.505820e+10 0.000000000e+00 0.000000000e+00 8.768447944e-03 -9.322854855e-02 8.768447944e-03 -9.322854855e-02 0.000000000e+00 0.000000000e+00
8.512490e+10 0.000000000e+00 0.000000000e+00 8.754831556e-03 -9.315677367e-02 8.754831556e-03 -9.315677367e-02 0.000000000e+00 0.000000000e+00
8.519161e+10 0.000000000e+00 0.000000000e+00 8.741246768e-03 -9.308510822e-02 8.741246768e-03 -9.308510822e-02 0.000000000e+00 0.000000000e+00
8.525831e+10 0.000000000e+00 0.000000000e+00 8.727693481e-03 -9.301355195e-02 8.727693481e-03 -9.301355195e-02 0.000000000e+00 0.000000000e+00
8.532502e+10 0.000000000e+00 0.000000000e+00 8.714171599e-03 -9.294210463e-02 8.714171599e-03 -9.294210463e-02 0.000000000e+00 0.000000000e+00
8.539172e+10 0.000000000e+00 0.000000000e+00 8.700681025e-03 -9.287076599e-02 8.700681025e-03 -9.287076599e-02 0.000000000e+00 0.000000000e+00
8.545843e+10 0.000000000e+00 0.000000000e+00 8.687221663e-03 -9.279953579e-02 8.687221663e-03 -9.279953579e-02 0.000000000e+00 0.000000000e+00
8.552513e+10 0.000000000e+00 0.000000000e+00 8.673793417e-03 -9.272841380e-02 8.673793417e-03 -9.272841380e-02 0.000000000e+00 0.000000000e+00
8.559183e+10 0.000000000e+00 0.000000000e+00 8.660396192e-03 -9.265739976e-02 8.660396192e-03 -9.265739976e-02 0.000000000e+00 0.000000000e+00
8.565854e+10 0.000000000e+00 0.000000000e+00 8.647029892e-03 -9.258649343e-02 8.647029892e-03 -9.258649343e-02 0.000000000e+00 0.000000000e+00
8.572524e+10 0.000000000e+00 0.000000000e+00 8.633694422e-03 -9.251569458e-02 8.633694422e-03 -9.251569458e-02 0.000000000e+00 0.000000000e+00
8.579195e+10 0.000000000e+00 0.000000000e+00 8.620389688e-03 -9.244500295e-02 8.620389688e-03 -9.244500295e-02 0.000000000e+00 0.000000000e+00
8.585865e+10 0.000000000e+00 0.000000000e+00 8.607115596e-03 -9.237441831e-02 8.607115596e-03 -9.237441831e-02 0.000000000e+00 0.000000000e+00
8.592536e+10 0.000000000e+00 0.000000000e+00 8.593872052e-03 -9.230394041e-02 8.593872052e-03 -9.230394041e-02 0.000000000e+00 0.000000000e+00
8.599206e+10 0.000000000e+00 0.000000000e+00 8.580658963e-03 -9.223356902e-02 8.580658963e-03 -9.223356902e-02 0.000000000e+00 0.000000000e+00
8.605877e+10 0.000000000e+00 0.000000000e+00 8.567476236e-03 -9.216330390e-02 8.567476236e-03 -9.216330390e-02 0.000000000e+00 0.000000000e+00
8.612547e+10 0.000000000e+00 0.000000000e+00 8.554323777e-03 -9.209314481e-02 8.554323777e-03 -9.209314481e-02 0.000000000e+00 0.000000000e+00
8.619217e+10 0.000000000e+00 0.000000000e+00 8.541201495e-03 -9.202309152e-02 8.541201495e-03 -9.202309152e-02 0.000000000e+00 0.000000000e+00
8.625888e+10 0.000000000e+00 0.000000000e+00 8.528109298e-03 -9.195314377e-02 8.528109298e-03 -9.195314377e-02 0.000000000e+00 0.000000000e+00
8.632558e+10 0.000000000e+00 0.000000000e+00 8.515047094e-03 -9.188330135e-02 8.515047094e-03 -9.188330135e-02 0.000000000e+00 0.000000000e+00
8.639229e+10 0.000000000e+00 0.000000000e+00 8.502014791e-03 -9.181356401e-02 8.502014791e-03 -9.181356401e-02 0.000000000e+00 0.000000000e+00
8.645899e+10 0.000000000e+00 0.000000000e+00 8.489012300e-03 -9.174393151e-02 8.489012300e-03 -9.174393151e-02 0.000000000e+00 0.000000000e+00
8.652570e+10 0.000000000e+00 0.000000000e+00 8.476039528e-03 -9.167440364e-02 8.476039528e-03 -9.167440364e-02 0.000000000e+00 0.000000000e+00
8.659240e+10 0.000000000e+00 0.000000000e+00 8.463096387e-03 -9.160498014e-02 8.463096387e-03 -9.160498014e-02 0.000000000e+00 0.000000000e+00
8.665911e+10 0.000000000e+00 0.000000000e+00 8.450182786e-03 -9.153566079e-02 8.450182786e-03 -9.153566079e-02 0.000000000e+00 0.000000000e+00
8.672581e+10 0.000000000e+00 0.000000000e+00 8.437298635e-03 -9.146644536e-02 8.437298635e-03 -9.146644536e-02 0.000000000e+00 0.000000000e+00
8.679252e+10 0.000000000e+00 0.000000000e+00 8.424443845e-03 -9.139733361e-02 8.424443845e-03 -9.139733361e-02 0.000000000e+00 0.000000000e+00
8.685922e+10 0.000000000e+00 0.000000000e+00 8.411618328e-03 -9.132832532e-02 8.411618328e-03 -9.132832532e-02 0.000000000e+00 0.000000000e+00
8.692592e+10 0.000000000e+00 0.000000000e+00 8.398821995e-03 -9.125942025e-02 8.398821995e-03 -9.125942025e-02 0.000000000e+00 0.000000000e+00
8.699263e+10 0.000000000e+00 0.000000000e+00 8.386054757e-03 -9.119061817e-02 8.386054757e-03 -9.119061817e-02 0.000000000e+00 0.000000000e+00
8.705933e+10 0.000000000e+00 0.000000000e+00 8.373316527e-03 -9.112191886e-02 8.373316527e-03 -9.112191886e-02 0.000000000e+00 0.000000000e+00
8.712604e+10 0.000000000e+00 0.000000000e+00 8.360607217e-03 -9.105332209e-02 8.360607217e-03 -9.105332209e-02 0.000000000e+00 0.000000000e+00
8.719274e+10 0.000000000e+00 0.000000000e+00 8.347926740e-03 -9.098482763e-02 8.347926740e-03 -9.098482763e-02 0.000000000e+00 0.000000000e+00
8.725945e+10 0.000000000e+00 0.000000000e+00 8.335275009e-03 -9.091643526e-02 8.335275009e-03 -9.091643526e-02 0.000000000e+00 0.000000000e+00
8.732615e+10 0.000000000e+00 0.000000000e+00 8.322651938e-03 -9.084814474e-02 8.322651938e-03 -9.084814474e-02 0.000000000e+00 0.000000000e+00
8.739286e+10 0.000000000e+00 0.000000000e+00 8.310057440e-03 -9.077995586e-02 8.310057440e-03 -9.077995586e-02 0.000000000e+00 0.000000000e+00
8.745956e+10 0.000000000e+00 0.000000000e+00 8.297491429e-03 -9.071186838e-02 8.297491429e-03 -9.071186838e-02 0.000000000e+00 0.000000000e+00
8.752626e+10 0.000000000e+00 0.000000000e+00 8.284953819e-03 -9.064388209e-02 8.284953819e-03 -9.064388209e-02 0.000000000e+00 0.000000000e+00
8.759297e+10 0.000000000e+00 0.000000000e+00 8.272444527e-03 -9.057599675e-02 8.272444527e-03 -9.057599675e-02 0.000000000e+00 0.000000000e+00
8.765967e+10 0.000000000e+00 0.000000000e+00 8.259963465e-03 -9.050821216e-02 8.259963465e-03 -9.050821216e-02 0.000000000e+00 0.000000000e+00
8.772638e+10 0.000000000e+00 0.000000000e+00 8.247510550e-03 -9.044052808e-02 8.247510550e-03 -9.044052808e-02 0.000000000e+00 0.000000000e+00
8.779308e+10 0.000000000e+00 0.000000000e+00 8.235085698e-03 -9.037294430e-02 8.235085698e-03 -9.037294430e-02 0.000000000e+00 0.000000000e+00
8.785979e+10 0.000000000e+00 0.000000000e+00 8.222688824e-03 -9.030546059e-02 8.222688824e-03 -9.030546059e-02 0.000000000e+00 0.000000000e+00
8.792649e+10 0.000000000e+00 0.000000000e+00 8.210319845e-03 -9.023807673e-02 8.210319845e-03 -9.023807673e-02 0.000000000e+00 0.000000000e+00
8.799320e+10 0.000000000e+00 0.000000000e+00 8.197978677e-03 -9.017079251e-02 8.197978677e-03 -9.017079251e-02 0.000000000e+00 0.000000000e+00
8.805990e+10 0.000000000e+00 0.000000000e+00 8.185665237e-03 -9.010360770e-02 8.185665237e-03 -9.010360770e-02 0.000000000e+00 0.000000000e+00
8.812660e+10 0.000000000e+00 0.000000000e+00 8.173379442e-03 -9.003652209e-02 8.173379442e-03 -9.003652209e-02 0.000000000e+00 0.000000000e+00
8.819331e+10 0.000000000e+00 0.000000000e+00 8.161121211e-03 -8.996953546e-02 8.161121211e-03 -8.996953546e-02 0.000000000e+00 0.000000000e+00
8.826001e+10 0.000000000e+00 0.000000000e+00 8.148890460e-03 -8.990264760e-02 8.148890460e-03 -8.990264760e-02 0.000000000e+00 0.000000000e+00
8.832672e+10 0.000000000e+00 0.000000000e+00 8.136687109e-03 -8.983585827e-02 8.136687109e-03 -8.983585827e-02 0.000000000e+00 0.000000000e+00
8.839342e+10 0.000000000e+00 0.000000000e+00 8.124511075e-03 -8.976916728e-02 8.124511075e-03 -8.976916728e-02 0.000000000e+00 0.000000000e+00
8.846013e+10 0.000000000e+00 0.000000000e+00 8.112362277e-03 -8.970257441e-02 8.112362277e-03 -8.970257441e-02 0.000000000e+00 0.000000000e+00
8.852683e+10 0.000000000e+00 0.000000000e+00 8.100240634e-03 -8.963607943e-02 8.100240634e-03 -8.963607943e-02 0.000000000e+00 0.000000000e+00
8.859354e+10 0.000000000e+00 0.000000000e+00 8.088146065e-03 -8.956968214e-02 8.088146065e-03 -8.956968214e-02 0.000000000e+00 0.000000000e+00
8.866024e+10 0.000000000e+00 0.000000000e+00 8.076078491e-03 -8.950338232e-02 8.076078491e-03 -8.950338232e-02 0.000000000e+00 0.000000000e+00
8.872694e+10 0.000000000e+00 0.000000000e+00 8.064037831e-03 -8.943717977e-02 8.064037831e-03 -8.943717977e-02 0.000000000e+00 0.000000000e+00
8.879365e+10 0.000000000e+00 0.000000000e+00 8.052024006e-03 -8.937107427e-02 8.052024006e-03 -8.937107427e-02 0.000000000e+00 0.000000000e+00
8.886035e+10 0.000000000e+00 0.000000000e+00 8.040036935e-03 -8.930506560e-02 8.040036935e-03 -8.930506560e-02 0.000000000e+00 0.000000000e+00
8.892706e+10 0.000000000e+00 0.000000000e+00 8.028076540e-03 -8.923915356e-02 8.028076540e-03 -8.923915356e-02 0.000000000e+00 0.000000000e+00
8.899376e+10 0.000000000e+00 0.000000000e+00 8.016142743e-03 -8.917333793e-02 8.016142743e-03 -8.917333793e-02 0.000000000e+00 0.000000000e+00
8.906047e+10 0.000000000e+00 0.000000000e+00 8.004235463e-03 -8.910761852e-02 8.004235463e-03 -8.910761852e-02 0.000000000e+00 0.000000000e+00
8.912717e+10 0.000000000e+00 0.000000000e+00 7.992354623e-03 -8.904199510e-02 7.992354623e-03 -8.904199510e-02 0.000000000e+00 0.000000000e+00
8.919388e+10 0.000000000e+00 0.000000000e+00 7.980500146e-03 -8.897646747e-02 7.980500146e-03 -8.897646747e-02 0.000000000e+00 0.000000000e+00
8.926058e+10 0.000000000e+00 0.000000000e+00 7.968671952e-03 -8.891103542e-02 7.968671952e-03 -8.891103542e-02 0.000000000e+00 0.000000000e+00
8.932728e+10 0.000000000e+00 0.000000000e+00 7.956869966e-03 -8.884569875e-02 7.956869966e-03 -8.884569875e-02 0.000000000e+00 0.000000000e+00
8.939399e+10 0.000000000e+00 0.000000000e+00 7.945094109e-03 -8.878045724e-02 7.945094109e-03 -8.878045724e-02 0.000000000e+00 0.000000000e+00
8.946069e+10 0.000000000e+00 0.000000000e+00 7.933344305e-03 -8.871531070e-02 7.933344305e-03 -8.871531070e-02 0.000000000e+00 0.000000000e+00
8.952740e+10 0.000000000e+00 0.000000000e+00 7.921620477e-03 -8.865025891e-02 7.921620477e-03 -8.865025891e-02 0.000000000e+00 0.000000000e+00
8.959410e+10 0.000000000e+00 0.000000000e+00 7.909922549e-03 -8.858530168e-02 7.909922549e-03 -8.858530168e-02 0.000000000e+00 0.000000000e+00
8.966081e+10 0.000000000e+00 0.000000000e+00 7.898250444e-03 -8.852043879e-02 7.898250444e-03 -8.852043879e-02 0.000000000e+00 0.000000000e+00
8.972751e+10 0.000000000e+00 0.000000000e+00 7.886604088e-03 -8.845567005e-02 7.886604088e-03 -8.845567005e-02 0.000000000e+00 0.000000000e+00
8.979422e+10 0.000000000e+00 0.000000000e+00 7.874983405e-03 -8.839099525e-02 7.874983405e-03 -8.839099525e-02 0.000000000e+00 0.000000000e+00
8.986092e+10 0.000000000e+00 0.000000000e+00 7.863388319e-03 -8.832641419e-02 7.863388319e-03 -8.832641419e-02 0.000000000e+00 0.000000000e+00
8.992763e+10 0.000000000e+00 0.000000000e+00 7.851818756e-03 -8.826192666e-02 7.851818756e-03 -8.826192666e-02 0.000000000e+00 0.000000000e+00
8.999433e+10 0.000000000e+00 0.000000000e+00 7.840274640e-03 -8.819753247e-02 7.840274640e-03 -8.819753247e-02 0.000000000e+00 0.000000000e+00
9.006103e+10 0.000000000e+00 0.000000000e+00 7.828755898e-03 -8.813323141e-02 7.828755898e-03 -8.813323141e-02 0.000000000e+00 0.000000000e+00
9.012774e+10 0.000000000e+00 0.000000000e+00 7.817262456e-03 -8.806902329e-02 7.817262456e-03 -8.806902329e-02 0.000000000e+00 0.000000000e+00
9.019444e+10 0.000000000e+00 0.000000000e+00 7.805794238e-03 -8.800490790e-02 7.805794238e-03 -8.800490790e-02 0.000000000e+00 0.000000000e+00
9.026115e+10 0.000000000e+00 0.000000000e+00 7.794351173e-03 -8.794088505e-02 7.794351173e-03 -8.794088505e-02 0.000000000e+00 0.000000000e+00
9.032785e+10 0.000000000e+00 0.000000000e+00 7.782933187e-03 -8.787695453e-02 7.782933187e-03 -8.787695453e-02 0.000000000e+00 0.000000000e+00
9.039456e+10 0.000000000e+00 0.000000000e+00 7.771540206e-03 -8.781311615e-02 7.771540206e-03 -8.781311615e-02 0.000000000e+00 0.000000000e+00
9.046126e+10 0.000000000e+00 0.000000000e+00 7.760172158e-03 -8.774936972e-02 7.760172158e-03 -8.774936972e-02 0.000000000e+00 0.000000000e+00
9.052797e+10 0.000000000e+00 0.000000000e+00 7.748828970e-03 -8.768571503e-02 7.748828970e-03 -8.768571503e-02 0.000000000e+00 0.000000000e+00
9.059467e+10 0.000000000e+00 0.000000000e+00 7.737510571e-03 -8.762215189e-02 7.737510571e-03 -8.762215189e-02 0.000000000e+00 0.000000000e+00
9.066137e+10 0.000000000e+00 0.000000000e+00 7.726216887e-03 -8.755868010e-02 7.726216887e-03 -8.755868010e-02 0.000000000e+00 0.000000000e+00
9.072808e+10 0.000000000e+00 0.000000000e+00 7.714947848e-03 -8.749529946e-02 7.714947848e-03 -8.749529946e-02 0.000000000e+00 0.000000000e+00
9.079478e+10 0.000000000e+00 0.000000000e+00 7.703703382e-03 -8.743200979e-02 7.703703382e-03 -8.743200979e-02 0.000000000e+00 0.000000000e+00
9.086149e+10 0.000000000e+00 0.000000000e+00 7.692483418e-03 -8.736881089e-02 7.692483418e-03 -8.736881089e-02 0.000000000e+00 0.000000000e+00
9.092819e+10 0.000000000e+00 0.000000000e+00 7.681287884e-03 -8.730570257e-02 7.681287884e-03 -8.730570257e-02 0.000000000e+00 0.000000000e+00
9.099490e+10 0.000000000e+00 0.000000000e+00 7.670116711e-03 -8.724268462e-02 7.670116711e-03 -8.724268462e-02 0.000000000e+00 0.000000000e+00
9.106160e+10 0.000000000e+00 0.000000000e+00 7.658969827e-03 -8.717975687e-02 7.658969827e-03 -8.717975687e-02 0.000000000e+00 0.000000000e+00
9.112831e+10 0.000000000e+00 0.000000000e+00 7.647847163e-03 -8.711691912e-02 7.647847163e-03 -8.711691912e-02 0.000000000e+00 0.000000000e+00
9.119501e+10 0.000000000e+00 0.000000000e+00 7.636748648e-03 -8.705417117e-02 7.636748648e-03 -8.705417117e-02 0.000000000e+00 0.000000000e+00
9.126171e+10 0.000000000e+00 0.000000000e+00 7.625674213e-03 -8.699151284e-02 7.625674213e-03 -8.699151284e-02 0.000000000e+00 0.000000000e+00
9.132842e+10 0.000000000e+00 0.000000000e+00 7.614623788e-03 -8.692894393e-02 7.614623788e-03 -8.692894393e-02 0.000000000e+00 0.000000000e+00
9.139512e+10 0.000000000e+00 0.000000000e+00 7.603597305e-03 -8.686646426e-02 7.603597305e-03 -8.686646426e-02 0.000000000e+00 0.000000000e+00
9.146183e+10 0.000000000e+00 0.000000000e+00 7.592594694e-03 -8.680407363e-02 7.592594694e-03 -8.680407363e-02 0.000000000e+00 0.000000000e+00
9.152853e+10 0.000000000e+00 0.000000000e+00 7.581615886e-03 -8.674177187e-02 7.581615886e-03 -8.674177187e-02 0.000000000e+00 0.000000000e+00
9.159524e+10 0.000000000e+00 0.000000000e+00 7.570660814e-03 -8.667955877e-02 7.570660814e-03 -8.667955877e-02 0.000000000e+00 0.000000000e+00
9.166194e+10 0.000000000e+00 0.000000000e+00 7.559729409e-03 -8.661743416e-02 7.559729409e-03 -8.661743416e-02 0.000000000e+00 0.000000000e+00
9.172865e+10 0.000000000e+00 0.000000000e+00 7.548821602e-03 -8.655539784e-02 7.548821602e-03 -8.655539784e-02 0.000000000e+00 0.000000000e+00
9.179535e+10 0.000000000e+00 0.000000000e+00 7.537937327e-03 -8.649344963e-02 7.537937327e-03 -8.649344963e-02 0.000000000e+00 0.000000000e+00
9.186205e+10 0.000000000e+00 0.000000000e+00 7.527076516e-03 -8.643158934e-02 7.527076516e-03 -8.643158934e-02 0.000000000e+00 0.000000000e+00
9.192876e+10 0.000000000e+00 0.000000000e+00 7.516239102e-03 -8.636981679e-02 7.516239102e-03 -8.636981679e-02 0.000000000e+00 0.000000000e+00
9.199546e+10 0.000000000e+00 0.000000000e+00 7.505425017e-03 -8.630813179e-02 7.505425017e-03 -8.630813179e-02 0.000000000e+00 0.000000000e+00
9.206217e+10 0.000000000e+00 0.000000000e+00 7.494634195e-03 -8.624653415e-02 7.494634195e-03 -8.624653415e-02 0.000000000e+00 0.000000000e+00
9.212887e+10 0.000000000e+00 0.000000000e+00 7.483866570e-03 -8.618502371e-02 7.483866570e-03 -8.618502371e-02 0.000000000e+00 0.000000000e+00
9.219558e+10 0.000000000e+00 0.000000000e+00 7.473122075e-03 -8.612360026e-02 7.473122075e-03 -8.612360026e-02 0.000000000e+00 0.000000000e+00
9.226228e+10 0.000000000e+00 0.000000000e+00 7.462400644e-03 -8.606226362e-02 7.462400644e-03 -8.606226362e-02 0.000000000e+00 0.000000000e+00
9.232899e+10 0.000000000e+00 0.000000000e+00 7.451702211e-03 -8.600101363e-02 7.451702211e-03 -8.600101363e-02 0.000000000e+00 0.000000000e+00
9.239569e+10 0.000000000e+00 0.000000000e+00 7.441026711e-03 -8.593985008e-02 7.441026711e-03 -8.593985008e-02 0.000000000e+00 0.000000000e+00
9.246239e+10 0.000000000e+00 0.000000000e+00 7.430374078e-03 -8.587877281e-02 7.430374078e-03 -8.587877281e-02 0.000000000e+00 0.000000000e+00
9.252910e+10 0.000000000e+00 0.000000000e+00 7.419744247e-03 -8.581778162e-02 7.419744247e-03 -8.581778162e-02 0.000000000e+00 0.000000000e+00
9.259580e+10 0.000000000e+00 0.000000000e+00 7.409137154e-03 -8.575687635e-02 7.409137154e-03 -8.575687635e-02 0.000000000e+00 0.000000000e+00
9.266251e+10 0.000000000e+00 0.000000000e+00 7.398552734e-03 -8.569605680e-02 7.398552734e-03 -8.569605680e-02 0.000000000e+00 0.000000000e+00
9.272921e+10 0.000000000e+00 0.000000000e+00 7.387990922e-03 -8.563532281e-02 7.387990922e-03 -8.563532281e-02 0.000000000e+00 0.000000000e+00
9.279592e+10 0.000000000e+00 0.000000000e+00 7.377451655e-03 -8.557467418e-02 7.377451655e-03 -8.557467418e-02 0.000000000e+00 0.000000000e+00
9.286262e+10 0.000000000e+00 0.000000000e+00 7.366934867e-03 -8.551411075e-02 7.366934867e-03 -8.551411075e-02 0.000000000e+00 0.000000000e+00
9.292933e+10 0.000000000e+00 0.000000000e+00 7.356440497e-03 -8.545363234e-02 7.356440497e-03 -8.545363234e-02 0.000000000e+00 0.000000000e+00
9.299603e+10 0.000000000e+00 0.000000000e+00 7.345968479e-03 -8.539323876e-02 7.345968479e-03 -8.539323876e-02 0.000000000e+00 0.000000000e+00
9.306274e+10 0.000000000e+00 0.000000000e+00 7.335518751e-03 -8.533292984e-02 7.335518751e-03 -8.533292984e-02 0.000000000e+00 0.000000000e+00
9.312944e+10 0.000000000e+00 0.000000000e+00 7.325091249e-03 -8.527270541e-02 7.325091249e-03 -8.527270541e-02 0.000000000e+00 0.000000000e+00
9.319614e+10 0.000000000e+00 0.000000000e+00 7.314685912e-03 -8.521256528e-02 7.314685912e-03 -8.521256528e-02 0.000000000e+00 0.000000000e+00
9.326285e+10 0.000000000e+00 0.000000000e+00 7.304302675e-03 -8.515250929e-02 7.304302675e-03 -8.515250929e-02 0.000000000e+00 0.000000000e+00
9.332955e+10 0.000000000e+00 0.000000000e+00 7.293941478e-03 -8.509253725e-02 7.293941478e-03 -8.509253725e-02 0.000000000e+00 0.000000000e+00
9.339626e+10 0.000000000e+00 0.000000000e+00 7.283602257e-03 -8.503264900e-02 7.283602257e-03 -8.503264900e-02 0.000000000e+00 0.000000000e+00
9.346296e+10 0.000000000e+00 0.000000000e+00 7.273284951e-03 -8.497284435e-02 7.273284951e-03 -8.497284435e-02 0.000000000e+00 0.000000000e+00
9.352967e+10 0.000000000e+00 0.000000000e+00 7.262989498e-03 -8.491312314e-02 7.262989498e-03 -8.491312314e-02 0.000000000e+00 0.000000000e+00
9.359637e+10 0.000000000e+00 0.000000000e+00 7.252715836e-03 -8.485348519e-02 7.252715836e-03 -8.485348519e-02 0.000000000e+00 0.000000000e+00
9.366308e+10 0.000000000e+00 0.000000000e+00 7.242463905e-03 -8.479393033e-02 7.242463905e-03 -8.479393033e-02 0.000000000e+00 0.000000000e+00
9.372978e+10 0.000000000e+00 0.000000000e+00 7.232233642e-03 -8.473445839e-02 7.232233642e-03 -8.473445839e-02 0.000000000e+00 0.000000000e+00
9.379648e+10 0.000000000e+00 0.000000000e+00 7.222024988e-03 -8.467506919e-02 7.222024988e-03 -8.467506919e-02 0.000000000e+00 0.000000000e+00
9.386319e+10 0.000000000e+00 0.000000000e+00 7.211837881e-03 -8.461576257e-02 7.211837881e-03 -8.461576257e-02 0.000000000e+00 0.000000000e+00
9.392989e+10 0.000000000e+00 0.000000000e+00 7.201672261e-03 -8.455653835e-02 7.201672261e-03 -8.455653835e-02 0.000000000e+00 0.000000000e+00
9.399660e+10 0.000000000e+00 0.000000000e+00 7.191528068e-03 -8.449739636e-02 7.191528068e-03 -8.449739636e-02 0.000000000e+00 0.000000000e+00
9.406330e+10 0.000000000e+00 0.000000000e+00 7.181405242e-03 -8.443833644e-02 7.181405242e-03 -8.443833644e-02 0.000000000e+00 0.000000000e+00
9.413001e+10 0.000000000e+00 0.000000000e+00 7.171303723e-03 -8.437935841e-02 7.171303723e-03 -8.437935841e-02 0.000000000e+00 0.000000000e+00
9.419671e+10 0.000000000e+00 0.000000000e+00 7.161223451e-03 -8.432046211e-02 7.161223451e-03 -8.432046211e-02 0.000000000e+00 0.000000000e+00
9.426342e+10 0.000000000e+00 0.000000000e+00 7.151164368e-03 -8.426164736e-02 7.151164368e-03 -8.426164736e-02 0.000000000e+00 0.000000000e+00
9.433012e+10 0.000000000e+00 0.000000000e+00 7.141126413e-03 -8.420291400e-02 7.141126413e-03 -8.420291400e-02 0.000000000e+00 0.000000000e+00
9.439682e+10 0.000000000e+00 0.000000000e+00 7.131109527e-03 -8.414426186e-02 7.131109527e-03 -8.414426186e-02 0.000000000e+00 0.000000000e+00
9.446353e+10 0.000000000e+00 0.000000000e+00 7.121113653e-03 -8.408569078e-02 7.121113653e-03 -8.408569078e-02 0.000000000e+00 0.000000000e+00
9.453023e+10 0.000000000e+00 0.000000000e+00 7.111138731e-03 -8.402720058e-02 7.111138731e-03 -8.402720058e-02 0.000000000e+00 0.000000000e+00
9.459694e+10 0.000000000e+00 0.000000000e+00 7.101184703e-03 -8.396879110e-02 7.101184703e-03 -8.396879110e-02 0.000000000e+00 0.000000000e+00
9.466364e+10 0.000000000e+00 0.000000000e+00 7.091251511e-03 -8.391046218e-02 7.091251511e-03 -8.391046218e-02 0.000000000e+00 0.000000000e+00
9.473035e+10 0.000000000e+00 0.000000000e+00 7.081339097e-03 -8.385221365e-02 7.081339097e-03 -8.385221365e-02 0.000000000e+00 0.000000000e+00
9.479705e+10 0.000000000e+00 0.000000000e+00 7.071447403e-03 -8.379404534e-02 7.071447403e-03 -8.379404534e-02 0.000000000e+00 0.000000000e+00
9.486376e+10 0.000000000e+00 0.000000000e+00 7.061576372e-03 -8.373595710e-02 7.061576372e-03 -8.373595710e-02 0.000000000e+00 0.000000000e+00
9.493046e+10 0.000000000e+00 0.000000000e+00 7.051725946e-03 -8.367794875e-02 7.051725946e-03 -8.367794875e-02 0.000000000e+00 0.000000000e+00
9.499716e+10 0.000000000e+00 0.000000000e+00 7.041896068e-03 -8.362002014e-02 7.041896068e-03 -8.362002014e-02 0.000000000e+00 0.000000000e+00
9.506387e+10 0.000000000e+00 0.000000000e+00 7.032086681e-03 -8.356217109e-02 7.032086681e-03 -8.356217109e-02 0.000000000e+00 0.000000000e+00
9.513057e+10 0.000000000e+00 0.000000000e+00 7.022297728e-03 -8.350440145e-02 7.022297728e-03 -8.350440145e-02 0.000000000e+00 0.000000000e+00
9.519728e+10 0.000000000e+00 0.000000000e+00 7.012529152e-03 -8.344671106e-02 7.012529152e-03 -8.344671106e-02 0.000000000e+00 0.000000000e+00
9.526398e+10 0.000000000e+00 0.000000000e+00 7.002780898e-03 -8.338909976e-02 7.002780898e-03 -8.338909976e-02 0.000000000e+00 0.000000000e+00
9.533069e+10 0.000000000e+00 0.000000000e+00 6.993052910e-03 -8.333156737e-02 6.993052910e-03 -8.333156737e-02 0.000000000e+00 0.000000000e+00
9.539739e+10 0.000000000e+00 0.000000000e+00 6.983345130e-03 -8.327411375e-02 6.983345130e-03 -8.327411375e-02 0.000000000e+00 0.000000000e+00
9.546410e+10 0.000000000e+00 0.000000000e+00 6.973657503e-03 -8.321673873e-02 6.973657503e-03 -8.321673873e-02 0.000000000e+00 0.000000000e+00
9.553080e+10 0.000000000e+00 0.000000000e+00 6.963989975e-03 -8.315944215e-02 6.963989975e-03 -8.315944215e-02 0.000000000e+00 0.000000000e+00
9.559751e+10 0.000000000e+00 0.000000000e+00 6.954342488e-03 -8.310222385e-02 6.954342488e-03 -8.310222385e-02 0.000000000e+00 0.000000000e+00
9.566421e+10 0.000000000e+00 0.000000000e+00 6.944714988e-03 -8.304508367e-02 6.944714988e-03 -8.304508367e-02 0.000000000e+00 0.000000000e+00
9.573091e+10 0.000000000e+00 0.000000000e+00 6.935107421e-03 -8.298802146e-02 6.935107421e-03 -8.298802146e-02 0.000000000e+00 0.000000000e+00
9.579762e+10 0.000000000e+00 0.000000000e+00 6.925519730e-03 -8.293103705e-02 6.925519730e-03 -8.293103705e-02 0.000000000e+00 0.000000000e+00
9.586432e+10 0.000000000e+00 0.000000000e+00 6.915951862e-03 -8.287413029e-02 6.915951862e-03 -8.287413029e-02 0.000000000e+00 0.000000000e+00
9.593103e+10 0.000000000e+00 0.000000000e+00 6.906403762e-03 -8.281730103e-02 6.906403762e-03 -8.281730103e-02 0.000000000e+00 0.000000000e+00
9.599773e+10 0.000000000e+00 0.000000000e+00 6.896875376e-03 -8.276054909e-02 6.896875376e-03 -8.276054909e-02 0.000000000e+00 0.000000000e+00
9.606444e+10 0.000000000e+00 0.000000000e+00 6.887366649e-03 -8.270387433e-02 6.887366649e-03 -8.270387433e-02 0.000000000e+00 0.000000000e+00
9.613114e+10 0.000000000e+00 0.000000000e+00 6.877877528e-03 -8.264727659e-02 6.877877528e-03 -8.264727659e-02 0.000000000e+00 0.000000000e+00
9.619785e+10 0.000000000e+00 0.000000000e+00 6.868407959e-03 -8.259075572e-02 6.868407959e-03 -8.259075572e-02 0.000000000e+00 0.000000000e+00
9.626455e+10 0.000000000e+00 0.000000000e+00 6.858957888e-03 -8.253431156e-02 6.858957888e-03 -8.253431156e-02 0.000000000e+00 0.000000000e+00
9.633125e+10 0.000000000e+00 0.000000000e+00 6.849527262e-03 -8.247794395e-02 6.849527262e-03 -8.247794395e-02 0.000000000e+00 0.000000000e+00
9.639796e+10 0.000000000e+00 0.000000000e+00 6.840116028e-03 -8.242165274e-02 6.840116028e-03 -8.242165274e-02 0.000000000e+00 0.000000000e+00
9.646466e+10 0.000000000e+00 0.000000000e+00 6.830724132e-03 -8.236543778e-02 6.830724132e-03 -8.236543778e-02 0.000000000e+00 0.000000000e+00
9.653137e+10 0.000000000e+00 0.000000000e+00 6.821351523e-03 -8.230929891e-02 6.821351523e-03 -8.230929891e-02 0.000000000e+00 0.000000000e+00
9.659807e+10 0.000000000e+00 0.000000000e+00 6.811998147e-03 -8.225323597e-02 6.811998147e-03 -8.225323597e-02 0.000000000e+00 0.000000000e+00
9.666478e+10 0.000000000e+00 0.000000000e+00 6.802663952e-03 -8.219724883e-02 6.802663952e-03 -8.219724883e-02 0.000000000e+00 0.000000000e+00
9.673148e+10 0.000000000e+00 0.000000000e+00 6.793348885e-03 -8.214133732e-02 6.793348885e-03 -8.214133732e-02 0.000000000e+00 0.000000000e+00
9.679819e+10 0.000000000e+00 0.000000000e+00 6.784052895e-03 -8.208550129e-02 6.784052895e-03 -8.208550129e-02 0.000000000e+00 0.000000000e+00
9.686489e+10 0.000000000e+00 0.000000000e+00 6.774775929e-03 -8.202974059e-02 6.774775929e-03 -8.202974059e-02 0.000000000e+00 0.000000000e+00
9.693159e+10 0.000000000e+00 0.000000000e+00 6.765517937e-03 -8.197405506e-02 6.765517937e-03 -8.197405506e-02 0.000000000e+00 0.000000000e+00
9.699830e+10 0.000000000e+00 0.000000000e+00 6.756278865e-03 -8.191844457e-02 6.756278865e-03 -8.191844457e-02 0.000000000e+00 0.000000000e+00
9.706500e+10 0.000000000e+00 0.000000000e+00 6.747058663e-03 -8.186290895e-02 6.747058663e-03 -8.186290895e-02 0.000000000e+00 0.000000000e+00
9.713171e+10 0.000000000e+00 0.000000000e+00 6.737857280e-03 -8.180744807e-02 6.737857280e-03 -8.180744807e-02 0.000000000e+00 0.000000000e+00
9.719841e+10 0.000000000e+00 0.000000000e+00 6.728674664e-03 -8.175206175e-02 6.728674664e-03 -8.175206175e-02 0.000000000e+00 0.000000000e+00
9.726512e+10 0.000000000e+00 0.000000000e+00 6.719510764e-03 -8.169674987e-02 6.719510764e-03 -8.169674987e-02 0.000000000e+00 0.000000000e+00
9.733182e+10 0.000000000e+00 0.000000000e+00 6.710365531e-03 -8.164151227e-02 6.710365531e-03 -8.164151227e-02 0.000000000e+00 0.000000000e+00
9.739853e+10 0.000000000e+00 0.000000000e+00 6.701238913e-03 -8.158634880e-02 6.701238913e-03 -8.158634880e-02 0.000000000e+00 0.000000000e+00
9.746523e+10 0.000000000e+00 0.000000000e+00 6.692130860e-03 -8.153125931e-02 6.692130860e-03 -8.153125931e-02 0.000000000e+00 0.000000000e+00
9.753193e+10 0.000000000e+00 0.000000000e+00 6.683041321e-03 -8.147624365e-02 6.683041321e-03 -8.147624365e-02 0.000000000e+00 0.000000000e+00
9.759864e+10 0.000000000e+00 0.000000000e+00 6.673970248e-03 -8.142130169e-02 6.673970248e-03 -8.142130169e-02 0.000000000e+00 0.000000000e+00
9.766534e+10 0.000000000e+00 0.000000000e+00 6.664917589e-03 -8.136643327e-02 6.664917589e-03 -8.136643327e-02 0.000000000e+00 0.000000000e+00
9.773205e+10 0.000000000e+00 0.000000000e+00 6.655883295e-03 -8.131163824e-02 6.655883295e-03 -8.131163824e-02 0.000000000e+00 0.000000000e+00
9.779875e+10 0.000000000e+00 0.000000000e+00 6.646867317e-03 -8.125691646e-02 6.646867317e-03 -8.125691646e-02 0.000000000e+00 0.000000000e+00
9.786546e+10 0.000000000e+00 0.000000000e+00 6.637869605e-03 -8.120226778e-02 6.637869605e-03 -8.120226778e-02 0.000000000e+00 0.000000000e+00
9.793216e+10 0.000000000e+00 0.000000000e+00 6.628890110e-03 -8.114769206e-02 6.628890110e-03 -8.114769206e-02 0.000000000e+00 0.000000000e+00
9.799887e+10 0.000000000e+00 0.000000000e+00 6.619928784e-03 -8.109318915e-02 6.619928784e-03 -8.109318915e-02 0.000000000e+00 0.000000000e+00
9.806557e+10 0.000000000e+00 0.000000000e+00 6.610985576e-03 -8.103875891e-02 6.610985576e-03 -8.103875891e-02 0.000000000e+00 0.000000000e+00
9.813227e+10 0.000000000e+00 0.000000000e+00 6.602060439e-03 -8.098440119e-02 6.602060439e-03 -8.098440119e-02 0.000000000e+00 0.000000000e+00
9.819898e+10 0.000000000e+00 0.000000000e+00 6.593153323e-03 -8.093011586e-02 6.593153323e-03 -8.093011586e-02 0.000000000e+00 0.000000000e+00
9.826568e+10 0.000000000e+00 0.000000000e+00 6.584264182e-03 -8.087590276e-02 6.584264182e-03 -8.087590276e-02 0.000000000e+00 0.000000000e+00
9.833239e+10 0.000000000e+00 0.000000000e+00 6.575392965e-03 -8.082176175e-02 6.575392965e-03 -8.082176175e-02 0.000000000e+00 0.000000000e+00
9.839909e+10 0.000000000e+00 0.000000000e+00 6.566539626e-03 -8.076769270e-02 6.566539626e-03 -8.076769270e-02 0.000000000e+00 0.000000000e+00
9.846580e+10 0.000000000e+00 0.000000000e+00 6.557704116e-03 -8.071369545e-02 6.557704116e-03 -8.071369545e-02 0.000000000e+00 0.000000000e+00
9.853250e+10 0.000000000e+00 0.000000000e+00 6.548886388e-03 -8.065976987e-02 6.548886388e-03 -8.065976987e-02 0.000000000e+00 0.000000000e+00
9.859921e+10 0.000000000e+00 0.000000000e+00 6.540086394e-03 -8.060591581e-02 6.540086394e-03 -8.060591581e-02 0.000000000e+00 0.000000000e+00
9.866591e+10 0.000000000e+00 0.000000000e+00 6.531304086e-03 -8.055213314e-02 6.531304086e-03 -8.055213314e-02 0.000000000e+00 0.000000000e+00
9.873262e+10 0.000000000e+00 0.000000000e+00 6.522539418e-03 -8.049842171e-02 6.522539418e-03 -8.049842171e-02 0.000000000e+00 0.000000000e+00
9.879932e+10 0.000000000e+00 0.000000000e+00 6.513792342e-03 -8.044478138e-02 6.513792342e-03 -8.044478138e-02 0.000000000e+00 0.000000000e+00
9.886602e+10 0.000000000e+00 0.000000000e+00 6.505062811e-03 -8.039121201e-02 6.505062811e-03 -8.039121201e-02 0.000000000e+00 0.000000000e+00
9.893273e+10 0.000000000e+00 0.000000000e+00 6.496350779e-03 -8.033771347e-02 6.496350779e-03 -8.033771347e-02 0.000000000e+00 0.000000000e+00
9.899943e+10 0.000000000e+00 0.000000000e+00 6.487656199e-03 -8.028428561e-02 6.487656199e-03 -8.028428561e-02 0.000000000e+00 0.000000000e+00
9.906614e+10 0.000000000e+00 0.000000000e+00 6.478979024e-03 -8.023092829e-02 6.478979024e-03 -8.023092829e-02 0.000000000e+00 0.000000000e+00
9.913284e+10 0.000000000e+00 0.000000000e+00 6.470319208e-03 -8.017764138e-02 6.470319208e-03 -8.017764138e-02 0.000000000e+00 0.000000000e+00
9.919955e+10 0.000000000e+00 0.000000000e+00 6.461676705e-03 -8.012442473e-02 6.461676705e-03 -8.012442473e-02 0.000000000e+00 0.000000000e+00
9.926625e+10 0.000000000e+00 0.000000000e+00 6.453051469e-03 -8.007127822e-02 6.453051469e-03 -8.007127822e-02 0.000000000e+00 0.000000000e+00
9.933296e+10 0.000000000e+00 0.000000000e+00 6.444443454e-03 -8.001820169e-02 6.444443454e-03 -8.001820169e-02 0.000000000e+00 0.000000000e+00
9.939966e+10 0.000000000e+00 0.000000000e+00 6.435852614e-03 -7.996519502e-02 6.435852614e-03 -7.996519502e-02 0.000000000e+00 0.000000000e+00
9.946636e+10 0.000000000e+00 0.000000000e+00 6.427278904e-03 -7.991225807e-02 6.427278904e-03 -7.991225807e-02 0.000000000e+00 0.000000000e+00
9.953307e+10 0.000000000e+00 0.000000000e+00 6.418722278e-03 -7.985939070e-02 6.418722278e-03 -7.985939070e-02 0.000000000e+00 0.000000000e+00
9.959977e+10 0.000000000e+00 0.000000000e+00 6.410182692e-03 -7.980659277e-02 6.410182692e-03 -7.980659277e-02 0.000000000e+00 0.000000000e+00
9.966648e+10 0.000000000e+00 0.000000000e+00 6.401660099e-03 -7.975386415e-02 6.401660099e-03 -7.975386415e-02 0.000000000e+00 0.000000000e+00
9.973318e+10 0.000000000e+00 0.000000000e+00 6.393154456e-03 -7.970120471e-02 6.393154456e-03 -7.970120471e-02 0.000000000e+00 0.000000000e+00
9.979989e+10 0.000000000e+00 0.000000000e+00 6.384665716e-03 -7.964861430e-02 6.384665716e-03 -7.964861430e-02 0.000000000e+00 0.000000000e+00
9.986659e+10 0.000000000e+00 0.000000000e+00 6.376193836e-03 -7.959609280e-02 6.376193836e-03 -7.959609280e-02 0.000000000e+00 0.000000000e+00
9.993330e+10 0.000000000e+00 0.000000000e+00 6.367738771e-03 -7.954364006e-02 6.367738771e-03 -7.954364006e-02 0.000000000e+00 0.000000000e+00
1.000000e+11 0.000000000e+00 0.000000000e+00 6.359300477e-03 -7.949125596e-02 6.359300477e-03 -7.949125596e-02 0.000000000e+00 0.000000000e+00
